35
Coordinates from ORCA-job orca
  C   -5.47663829310000      1.53052769940000      0.24589526130000
  N   -4.05351159150000      1.32233575320000      0.10014692480000
  H   -6.00183520430000      0.55291766540000      0.25474954720000
  H   -5.86367311570000      2.13862599140000     -0.59952622780000
  H   -5.68051100390000      2.05482191090000      1.20399356490000
  C   -3.19124431760000      2.37297492020000      0.01047394970000
  H   -3.70341810600000      0.35566616230000      0.05831658070000
  O   -1.84684943820000      2.18470272830000     -0.08557364680000
  C   -1.17850177940000      1.01375199990000      0.21196011310000
  C   0.31447573210000      1.19685414950000     -0.04649275220000
  H   -1.53336742690000      0.21792582530000     -0.47945715480000
  H   -1.36464034430000      0.68593696620000      1.25612729410000
  O   -3.62056078130000      3.51797134680000      0.02782667470000
  N   1.06621320410000      2.19989003190000      0.78586135720000
  C   2.32990548250000      2.53721245840000      0.05024299230000
  C   2.41753629250000      4.05489336990000     -0.15830035270000
  H   2.32964021920000      2.14285336490000     -0.99161044790000
  H   3.24560447910000      2.10162654110000      0.50879627440000
  O   1.13633559420000      4.52003452310000     -0.50953430630000
  H   3.18913880940000      4.31680484110000     -0.91284092220000
  H   2.73381708640000      4.55949609880000      0.77578544420000
  C   1.31034651090000      1.80623064240000      2.16940249880000
  C   1.88014762460000      3.01992084420000      2.94274669260000
  O   1.26135972140000      4.25182357460000      2.62269719770000
  H   2.95409709240000      3.12649570680000      2.69966053780000
  H   1.77559264120000      2.82875832520000      4.02960696960000
  H   0.81972726210000      0.20680453670000      0.03524401070000
  H   0.34132350220000      1.48336363570000     -1.12441707490000
  Rh  0.18891786070000      3.97047414910000      1.05638633800000
  H   1.97543932940000      0.91928587330000      2.25089858880000
  H   0.34321688610000      1.52461066830000      2.62822168010000
  C   -0.62696588200000      5.82047205730000      1.14079825810000
  O   -1.13065916480000      6.82934912040000      1.16260489680000
  C   -1.38435407580000      3.33373300590000      2.19752882390000
  O   -2.22276058730000      3.03564102000000      2.89284406280000
