33
Coordinates from ORCA-job orca
  C   -5.08278732532216      1.58972542196608      0.48539680527078
  N   -3.65171286250950      1.37792738339013      0.24009162153927
  H   -5.55080621990869      0.61799836864086      0.64248941243535
  H   -5.54863084951339      2.08369497314594     -0.37040966741639
  H   -5.22551080105627      2.21011299783310      1.37289397666795
  C   -2.86451667603454      2.43799166713313      0.04465048322699
  H   -3.30291961055221      0.43768537556661      0.20989401440201
  O   -1.48488601184112      2.14895063673955     -0.24074003720417
  C   -0.94301625518211      0.80785146372965     -0.05525738648501
  C   0.52127680748888      0.86328562714423     -0.44260579572315
  H   -1.45528649737348      0.11508529928125     -0.73157452233162
  H   -1.09173356416357      0.50804251486998      0.98750439282799
  O   -3.18094798806128      3.59359393355597      0.04994511253104
  N   1.22216175713418      1.93467786937864      0.32401612927009
  C   2.50772927213657      2.36584401458864     -0.32363469500461
  C   2.77348197983846      3.79434997327901      0.10830990973167
  H   2.35365746140135      2.34628033825872     -1.40758871841804
  H   3.32349425967186      1.67795791425642     -0.07019023002652
  O   1.58199431869971      4.56830590119530     -0.04214527425590
  H   3.55321667976727      4.25193549499284     -0.51111762220632
  H   3.10464467214213      3.85590021222589      1.15673059958847
  C   1.39489511833335      1.55990686015579      1.78693377379185
  C   0.69535928448167      2.61751609958067      2.64519633913813
  O   -0.50204811758099      2.99716302289532      2.01701648250229
  H   1.35540305749258      3.48470023002298      2.81325152261984
  H   0.44267312539059      2.20541333420503      3.63233371809352
  H   0.98751368069728     -0.11634546594517     -0.27060083070283
  H   0.60258141246568      1.10231368970483     -1.50696609949861
  Rh  0.01980373412851      3.60397725122243      0.25824627919515
  H   2.46180656387914      1.47752177079804      2.01472305450454
  H   0.94215990509086      0.57814383259079      1.94762401879602
  C   -1.01466902652723      5.14515264846200      0.30820334930981
  O   -1.58931540471349      6.11909709023526      0.38059627673038
