43
Coordinates from ORCA-job orca
  C   -5.31548114846213      2.77147342278246      0.78576440623580
  N   -3.94740715096300      2.35859033255168      0.49483898029256
  H   -5.91885009791433      1.87987439372432      0.96653451040545
  H   -5.75169880106101      3.34722493967067     -0.03794779224406
  H   -5.32906842521064      3.39559093283046      1.68123405504291
  C   -2.98789060746364      3.30920689894735      0.40085630076884
  H   -3.81476590988646      1.46984822425701      0.04485260671001
  O   -1.73741256526781      2.84675228663354     -0.02178520288667
  C   -1.36339325519441      1.45278214315500      0.22379991206223
  C   0.08376647585863      1.22005919892016     -0.17600916462440
  O   -3.13202748016833      4.47613227188876      0.64955204487196
  N   0.98461894247009      2.21163499984733      0.42315399048277
  C   2.27922970098307      2.38708844726029     -0.29041268465290
  C   2.67725969363447      3.86632995493281     -0.27159258820485
  H   2.14220657484255      2.09302028690391     -1.33705938884128
  H   3.06152691191110      1.74925275602392      0.15196095060208
  O   1.80318128302163      4.64761733037190     -1.02533026984534
  H   3.68395313714937      3.96898494407825     -0.70958979301474
  H   2.75174536886851      4.20328092216063      0.78518935591308
  C   1.16555180472234      1.97169170743844      1.88190581165396
  C   0.78667668637073      3.10320223974530      2.81978664059272
  O   -0.61148251319463      3.42409492065818      2.81556609623131
  H   1.27569483843416      4.03472791280333      2.52956185550263
  H   1.09386786608235      2.82151381776158      3.83353104235245
  C   -1.43009167491174      2.60962090910594      3.53216280880396
  O   -1.09185105810452      1.55336831918876      4.03653595385940
  N   -2.67194133296420      3.14624348091078      3.58224261951050
  H   0.32363232692388      0.18170724555153      0.12591062939932
  H   0.17243230680872      1.28919759775736     -1.26263106065510
  H   0.60143276210113      1.08041001506633      2.17907206242202
  H   2.22350928931096      1.74742151302322      2.07744583963534
  Rh  -0.02542673862868      4.12961789294338     -0.53058480571888
  C   -0.48082500226712      4.12198167137784     -2.30411894171646
  O   -0.85212242480781      4.27684399409867     -3.39192553841577
  C   -0.23741254716886      5.48865316926322      0.70244753257790
  O   -0.46450736065033      6.42653089960226      1.33811875413340
  C   -3.77517605314533      2.43596283883176      4.19437753727403
  H   -2.82753762784448      4.00994113464764      3.08485864240078
  H   -3.42825201047792      1.92000466291775      5.09218489014551
  H   -4.21416575182513      1.68724330155329      3.52007183364933
  H   -4.55073776662978      3.15171934524781      4.47678127840268
  H   -1.98549212529133      0.78802290368188     -0.38919872235443
  H   -1.53786895638983      1.24188183458260      1.28453049113969
