41
Coordinates from ORCA-job orca
  C   -5.03737468300063      1.83791969454313      1.65048183147612
  N   -3.83639823490861      2.15583528513940      0.89748190695115
  H   -4.80286910910216      1.31277367470809      2.58457450850395
  H   -5.68198138259631      1.19771309617119      1.04522219731464
  H   -5.57049699418001      2.76345470673718      1.87823226621562
  C   -3.23432265748297      1.20430938340741      0.17891418811245
  H   -3.24617616695658      2.93734757746182      1.17387758348660
  O   -2.00988730854899      1.68609695910131     -0.34735184368591
  C   -1.14908120724581      0.64316591551885     -0.89318407546141
  C   0.28462745694740      1.15950765477321     -0.88652709092420
  O   -3.61272414405178      0.08660319788482     -0.07667488663043
  N   0.55501441217394      2.02302368460392      0.29647684729006
  C   1.84901316673774      2.76848457560013      0.16218339031258
  C   1.67049390060130      4.17165640468009      0.74432277388018
  H   2.05812973351284      2.86012472723894     -0.90809578343579
  H   2.67230147916513      2.20774101498026      0.63018492955291
  O   0.47861193999625      4.75349547942649      0.28820119115044
  H   2.51594818899171      4.78970526256708      0.39780240193581
  H   1.73083826184103      4.14388077306182      1.84490950990800
  C   0.46083396084578      1.19062699147981      1.53300199736911
  C   0.81291472354549      1.83821080074099      2.86083528990201
  O   0.10379792130042      3.02965888369171      3.18971985729249
  H   1.86592819807189      2.12649289766811      2.90118063951628
  H   0.62604712519773      1.07493111519369      3.62630264845994
  C   -1.22473424887012      2.88496262015750      3.48339898854541
  O   -1.77893433914482      1.81250551850465      3.63315694422882
  N   -1.78327512578917      4.10996710945522      3.60868486650145
  H   0.96536701244317      0.29045324244636     -0.91606306228082
  H   0.46827475812646      1.76632454699075     -1.77501820681090
  H   -0.56007517280112      0.80847263030626      1.59244377045495
  H   1.15525710400782      0.33834862618414      1.42323143690792
  Rh  -0.95376829012955      3.46716022923787      0.06317801423694
  C   -2.21628514569507      4.68624216536409     -0.16695410358083
  O   -3.06563609956745      5.47183729299753     -0.28414227363713
  C   -3.19526610669768      4.28508870850083      3.89042142986710
  H   -1.25780432894009      4.87728917116949      3.22142777438178
  H   -3.36888798563496      4.57162641201982      4.93467205240137
  H   -3.71743696199392      3.34485704777525      3.70508322520475
  H   -3.60811743953287      5.06306688402992      3.24173668832091
  H   -1.46470836431903      0.42106544758420     -1.91619634030559
  H   -1.28165127981616     -0.25268426040376     -0.28452198872899
