43
Coordinates from ORCA-job orca
  C   -5.54862973417168      2.76047745553080     -1.19855783172725
  N   -4.15447427327825      2.66836988873607     -0.80400387254813
  H   -6.03255156680677      1.80321525740505     -1.00123130156523
  H   -5.64211414069270      2.99200632252105     -2.26517748891548
  H   -6.05054406299824      3.54121786155968     -0.62023630096678
  C   -3.58195608124969      1.49672845927520     -0.51207929590639
  H   -3.56354474232623      3.49304245623925     -0.79740794769502
  O   -2.21338539685989      1.68552039432960     -0.21937248890713
  C   -1.46853423360299      0.50168097178868      0.19968453205400
  C   -0.00929816464046      0.72113845996426     -0.14853215232665
  O   -4.07106464038882      0.39389387489603     -0.47884790771153
  N   0.54260341166592      1.93431025781586      0.50091559559089
  C   1.72915145272398      2.51394489822650     -0.19592076966155
  C   1.58396591191664      4.06586616064865     -0.38086633151984
  H   1.81463307722789      2.03980811686202     -1.17806380192257
  H   2.64036350099367      2.26536961276869      0.36528047310850
  O   0.49253044017306      4.60752901331583      0.29777977900255
  H   1.52511684174349      4.26688291489730     -1.46585568693535
  H   2.48719393027091      4.57029594976925     -0.00022751172410
  C   0.85354111297320      1.63037151494735      1.92118061646219
  C   1.19800924436737      2.81709101550996      2.81117135454008
  O   0.04686341052686      3.48774409731393      3.33374903413202
  H   1.74250912594068      3.59037650035297      2.26789247544277
  H   1.80826674736146      2.44794710951802      3.64145286469100
  C   -0.61063099854960      2.81752433021318      4.32453790541270
  O   -0.25926320659946      1.74042143383570      4.77222538864283
  N   -1.68309391596963      3.53255714616097      4.73462230563433
  H   0.54815502977809     -0.18651351597373      0.14015679810227
  H   0.07629932667714      0.84412653384986     -1.23225465242416
  H   0.00971020523696      1.10540433752575      2.37317102451095
  H   1.71040879587087      0.93428072601849      1.93961298870185
  Rh  -1.03969386047731      3.45437091259679     -0.04448269873106
  C   -1.10947718577703      3.74014366996999     -1.86565230708587
  O   -1.37220352881588      3.97274520575190     -2.97223159159856
  C   -2.02468048170762      4.27194847068425      1.26939102544635
  O   -2.71261430455507      4.87097283912932      1.98863844729552
  C   -2.63613930737795      2.96978846364483      5.67115433195559
  H   -1.95560289404795      4.31787148121058      4.16426875333698
  H   -2.10064492023557      2.40078437741791      6.43306879000137
  H   -3.35557446090274      2.29779494585078      5.18398662365550
  H   -3.18563596380403      3.78045579100168      6.15533595264453
  H   -1.86797623277722     -0.36200248358889     -0.33489365592376
  H   -1.64035334553525      0.36142119160814      1.27154452703146
