64
Coordinates from ORCA-job orca
  C   -0.35764950421530     -1.28430954372656      1.64051742935967
  C   -1.14423797136643     -0.14288360708898      1.42928618284905
  C   -0.99274283520252      0.74760575265335      0.37608641271882
  O   -0.10163509753102      0.65062863438119     -0.55517767965724
  O   0.70583959258525     -1.57042100684949      0.99236486384347
  C   -1.93013594843561      1.90131602949309      0.20683740020227
  C   -0.78484641255651     -2.27835275488502      2.67904561848734
  H   -1.98972254340899      0.00143468998469      2.09109721887310
  H   -0.82881280000777     -1.80395484850955      3.66464150078903
  H   -0.10316633084134     -3.12743601630586      2.71437186953240
  H   -1.79387007143670     -2.63687888253412      2.45347632990959
  H   -2.63905078371328      1.97957095358555      1.03024623524465
  H   -2.48211303992730      1.78797158472736     -0.73184764365444
  H   -1.35602513507922      2.83015353512328      0.12911840109657
  Rh  1.43579383248668     -0.54467981990799     -0.51772644294080
  N   2.06609665019125      0.24223397518930     -2.40440080392746
  C   0.97294824551907      1.04586703008848     -3.06295456622023
  C   2.38605198036493     -0.97872445524712     -3.22216417368140
  C   1.18672179484533      1.44177475671827     -4.51574287672615
  H   0.83391875090590      1.94447869349380     -2.46722199782666
  H   0.04484871896989      0.47493105723329     -2.99535427610885
  H   2.21961503296512      1.75537008299342     -4.71170196453777
  H   0.54893202248630      2.31872402478064     -4.69608734387988
  O   0.79801675776170      0.35248778635041     -5.35638640516529
  C   1.22460624838063     -1.94490005396118     -3.28333196514165
  H   3.25320712846344     -1.45492430488540     -2.75773371175365
  H   2.65072704774531     -0.68128116946318     -4.24272744653826
  O   0.76037921867753     -2.27803522301139     -1.95291273201202
  H   1.53271601503472     -2.85205807708815     -3.81365473670156
  H   0.36823736855314     -1.52466324095546     -3.81003956139653
  H   0.84305055676703      0.64197076346641     -6.27376768073641
  C   3.33845704244512      1.04145187352825     -2.31488894883365
  C   3.18205307601439      2.43414552399025     -1.74299166925960
  H   3.79146095805425      1.12183967855638     -3.31171961338979
  H   4.01741204423521      0.45541794569568     -1.69091820356621
  O   2.80017657146064      3.33784481245458     -2.77575477840169
  H   4.15027334328239      2.73344529010457     -1.31709079413428
  H   2.44616922710373      2.42840934112326     -0.92604190428817
  H   2.78633149207492      4.22627148659727     -2.40290551526092
  H   1.31790723625179     -2.98638680993751     -1.60210556750303
  N   3.05548492665420      0.40100815696583      1.84583804107913
  C   3.38269360742524      1.82183240365570      1.68508868912028
  C   4.18100969874990     -0.46010376791216      1.44959482665130
  C   3.71605414069744     -1.74094703650126      0.76267768683597
  H   4.82211259429906     -0.72639398665447      2.29966637874558
  H   4.79578942962432      0.09219987092201      0.72969657195183
  H   4.59538594394696     -2.36336489359852      0.54934150473763
  O   3.09246297452610     -1.45029974851519     -0.47281258922471
  H   3.04943663163445     -2.31516484432255      1.41450923697994
  C   2.16746713762752      2.73495839672110      1.77554368774161
  H   3.83036994340449      1.96464963051580      0.70012129110384
  H   4.13662345200870      2.14783022545004      2.42583904699524
  H   1.32765232771886      2.26760565632359      1.23205580938112
  O   2.54393214206280      3.97247954352699      1.17615920388778
  H   1.85601668152949      2.88477451478843      2.81747530443993
  C   2.55237534163531      0.19067108377170      3.22118156532903
  C   2.42298660677091     -1.22989687655092      3.75703836193433
  H   1.55356373630414      0.64413864063852      3.27950130230672
  H   3.19358714424136      0.75355262978627      3.92938496660060
  H   1.87478086614225     -1.86255560894556      3.06038666465262
  H   1.82235354040259     -1.16326664552125      4.67713954569108
  O   3.65481729848040     -1.89436795324882      4.00539827096751
  H   4.05042992169140     -1.52823238439678      4.80403160412763
  H   2.01883632821807      4.67960572824565      1.56271707400166
