58
Coordinates from ORCA-job orca
  Rh  21.93447605182392     -6.83229033955205    -13.54358938676768
  O   20.15406140748428     -7.28757457507072    -12.76753041270922
  O   21.20944260300502     -6.91469231382735    -15.45374547958092
  O   23.74170411558844     -6.33771426106635    -14.52253977961469
  C   22.68930369242034     -6.71721265485857    -11.90007971789672
  O   23.19650607365534     -6.60779047859237    -10.86245926251145
  C   23.88335853969675     -5.53603402516847    -15.46154320384767
  N   24.72014237088568     -5.80496978152032    -16.48280304437731
  C   19.98545412033153     -7.14897661313011    -15.75308710817871
  C   18.95015819783373     -7.35157999027939    -14.83998578097104
  C   19.07310298225378     -7.38043417446763    -13.43966644483030
  H   17.98985827958761     -8.25807779877033    -11.81440332272960
  H   16.95212723378705     -7.74572041633845    -13.17652798740314
  C   17.83796249703247     -7.49952032606798    -12.58811758854253
  C   19.69405813785379     -7.17212956818428    -17.23118234909323
  H   19.98090596382514     -6.21086194532691    -17.67261018527860
  H   20.31184300361184     -7.94077887932392    -17.70836440016921
  H   18.64246814008905     -7.36913778757772    -17.44682641642205
  H   17.67962638207976     -6.53905669190320    -12.08050178701735
  N   20.16214368750119     -3.14362990829578    -14.08856389014698
  C   18.78350678287294     -3.49779428796856    -14.44713456475647
  C   21.12397045495033     -3.46694519957270    -15.13288202817876
  C   20.31962968978285     -1.80391249640931    -13.53936770903293
  C   19.78230382041367     -1.68806319913615    -12.11944268306716
  O   20.47654835649860     -2.59057842500905    -11.24617432499346
  H   18.70777684511548     -1.88577603878781    -12.06410635874571
  H   19.97569387054440     -0.67835301502204    -11.73937896536586
  H   21.38865255836994     -1.56140862639157    -13.51302480597794
  H   19.83719030350059     -1.01282832936508    -14.15049244379409
  H   21.22352837215551     -2.68318874582875    -15.91007562701168
  H   20.78632645407126     -4.38179555709393    -15.63436937811105
  C   22.48906378868577     -3.78083978506116    -14.53210177961913
  H   23.01760274304199     -2.89484066258564    -14.16578909654356
  H   22.36663980451275     -4.50910105019825    -13.71838852406885
  H   18.76289127173771     -4.58289423736399    -14.61336508449301
  H   18.15167602066490     -3.32050693362724    -13.57051452278696
  C   18.20517156902312     -2.78311841601232    -15.67423337158713
  O   18.62901582036065     -3.95236663650676    -11.14215566037779
  H   24.61799146737393     -9.08677196503279    -17.46367592695994
  H   23.86080771662580     -7.71643847113998    -18.29955946375386
  H   23.32155251973110     -8.16661779232569    -16.66722642395365
  H   21.59690209445357     -4.34301323040747    -10.17251388178857
  O   23.32241497602607     -4.32756507541495    -15.59292637178792
  C   25.23437559885845     -7.15603317860096    -16.71031877880841
  C   24.19319479210816     -8.08730134127882    -17.32406889466931
  H   20.85179333883425     -6.20889672215928     -8.95247471672319
  N   20.60842690860129     -4.53494610184410    -10.16152327780071
  C   19.80155529969613     -3.73112369291574    -10.89072861170910
  H   24.74256706313396     -5.13276435749742    -17.23349506713825
  H   25.57739531148425     -7.54879766801643    -15.74864575454279
  H   26.11141825034617     -7.06066173984439    -17.36000941564764
  H   19.16252297962719     -5.71387369087195     -9.21766382253878
  H   20.05449160653729     -6.55555477586411    -10.50955945500135
  H   17.95462587577914     -7.49390305058157    -15.24466675165313
  C   20.14134005489857     -5.83082809804951     -9.69157585663373
  H   18.18103651812598     -1.69556340933752    -15.54743730501602
  H   18.78019019931138     -3.00502615646834    -16.58008638465369
  H   17.17575942177984     -3.11551031105960    -15.84589536261974
