80
Coordinates from ORCA-job orca
  Rh  -0.52388094286912      0.92125589144909      0.05529122988540
  O   0.21164675453474      4.67017974966178     -4.42501700716747
  O   1.99921230987676      5.02306718892327     -0.66457510138967
  C   -3.58271401080910     -1.51787983494262      2.62083386961835
  O   0.45348757059156     -0.93785059276174      0.06949248077205
  C   -0.10165466061416     -1.91088068070601      1.01744238177375
  N   0.52409794996526      2.17601371641549     -2.58197562642784
  C   -0.67034524164776      2.74881097633082     -3.22889122534802
  C   -0.50421145036228      3.43983410896479     -4.57684527507199
  H   -1.13831202344618      3.45377196796194     -2.53448202111089
  H   -1.38213672110341      1.93520075941911     -3.38801055758001
  H   0.00637378271619      2.78185506666441     -5.29449103613792
  H   -1.51520598458565      3.62998497166015     -4.96772242941020
  C   1.52186890636894      3.17131459011237     -2.13964717264969
  C   0.94338669246007      4.30726748005268     -1.30367159410873
  H   2.06938491749372      3.58584571495185     -3.00207185873550
  H   2.25591928774547      2.64825275574904     -1.51622801290969
  C   1.20280081274182      1.15462483845221     -3.39077265664352
  C   0.41990557130226     -0.12739440672182     -3.62203724573121
  H   2.11580305401556      0.87952852583090     -2.85365254840828
  H   1.53561103057286      1.56014235673739     -4.36576192887605
  O   -0.66289790553008     -0.02890069363709     -4.55057984183019
  H   -0.03503122427035     -0.45013090941335     -2.68168568532870
  H   1.13077503223264     -0.90321087629560     -3.94724411395559
  C   -0.56975864674413     -1.17971101534700      2.25581459244691
  H   0.68586241140390     -2.61565344578129      1.29493098451205
  H   -0.90763683291571     -2.44603519760191      0.50588858052561
  C   -2.88994930217993     -0.73348498461765      1.57755077596233
  H   -3.65010849802444     -2.60086220124676      2.61700511626522
  O   -4.38788347188805     -0.81147574772694      3.46187128231754
  N   -1.55382865448919     -0.12119676660221      1.96025165531551
  H   -3.52259661404028      0.10443252332060      1.25968057437363
  H   -2.72614305819467     -1.36638767102520      0.70392329795786
  H   0.29470614010544     -0.73272991052070      2.75387854941034
  H   -0.99788574218203     -1.92681844065392      2.94614845889540
  C   -1.77130127774965      0.74465484579963      3.14892875349906
  C   -0.65183146591128      1.71178654956740      3.50188799703235
  H   -1.95899549276018      0.11375125672882      4.03037350054750
  H   -2.68479774499638      1.32103855901494      2.97761485681549
  O   -0.98380379935955      2.17879671775467      4.80015256754796
  H   -0.61661764104599      2.53510134120673      2.77620648577522
  H   0.33213097349792      1.21756166261730      3.50265142182466
  H   -0.40038793136234      2.91212505078246      5.02135691114937
  C   2.68313755149634      6.02557867453564     -1.31168262228136
  N   2.27017251985373      6.35300448311153     -2.56681905434705
  O   3.58138529077510      6.57950731667094     -0.72513722042117
  H   1.64355596296401      5.75912419476061     -3.08507158726860
  C   3.01566139081756      7.35995032901776     -3.30707511487889
  H   3.14804688019759      8.25246080456879     -2.69238137275049
  H   2.45065916388402      7.62987167392505     -4.20267220868338
  H   4.00998969217841      7.00429203683429     -3.60326261325292
  H   0.33528289581669      3.90080240378929     -0.49163305725678
  H   0.30320668145084      4.98321244346383     -1.88072845175675
  C   1.70545597552781     -1.16468568167116     -0.56064554613867
  N   1.93567762129178     -2.45538359645928     -0.85540710379189
  C   3.16936118109534     -2.82931614599845     -1.54624432742130
  H   1.15631625311404     -3.09210090566644     -0.89789933449537
  O   2.42284697588933     -0.22462050404613     -0.76001516896814
  H   4.00418633929803     -2.28143967752135     -1.10847693137671
  H   3.11960970124134     -2.59767806373562     -2.61558323711624
  H   3.33627857094352     -3.89932341742187     -1.41451855966187
  H   0.21260820674827      5.12343583317857     -5.27509725439259
  H   -4.86016932541013     -1.40765360201406      4.05448017086018
  O   -1.60908912389181      2.54979704187817      0.12416955526619
  C   -2.76707215375021      2.67941160089916     -0.41080577106350
  O   -1.83220997922408     -0.02165788838984     -1.08744919809401
  C   -2.92670274644931      0.47687302000668     -1.54450422302763
  H   -0.29661689829228      0.05339123186033     -5.43793466705649
  C   -3.42321741953785      1.73243976036557     -1.20536088395548
  C   -3.43470809839954      3.98888289258962     -0.11744837514140
  C   -3.65754424436764     -0.40076422148225     -2.50823953292451
  H   -4.05225735152002      4.31779253932754     -0.95482934751525
  H   -2.69212760973352      4.74839560753842      0.12937280504415
  H   -4.09582875388269      3.86577448551559      0.74906722504968
  H   -3.80222584996811     -1.39459956441294     -2.07317033254747
  H   -3.03700214216465     -0.52746382678210     -3.40317880261963
  H   -4.62314619423513      0.01639584988420     -2.79196960220665
  H   -4.37841903446591      2.02179868388290     -1.62515644003317
  C   0.87927220027220      1.73982859655855      0.85257608392839
  O   1.80442262029371      2.24197539781012      1.30743892179462
