53
Coordinates from ORCA-job orca
  C   -5.20121146051414     -0.40820760184489     -2.23390093036391
  N   -4.10103693661925     -0.10997410267162     -1.33362410824216
  H   -4.89868344604527     -0.31255422115289     -3.28284842709350
  H   -6.01187784347848      0.29537548354188     -2.03295155983602
  H   -5.57230146677979     -1.42888695776565     -2.08712971269780
  C   -2.96690818692287     -0.78892306753568     -1.46070743586671
  H   -4.12831848541914      0.72996798766815     -0.67250717048510
  O   -2.00312145416484     -0.41029445233644     -0.46262032001020
  C   -0.72300512756340     -0.06513714515126     -1.07035608456729
  C   -0.73204271608308      1.42929451091033     -1.36465809173897
  O   -2.67757012832908     -1.63927598726319     -2.27209773316179
  N   -0.86718172090399      2.18506854396963     -0.09191223184066
  C   -1.62498255657418      3.46597853257526     -0.21630048932685
  C   -2.03283942921195      3.90936576123086      1.20822475629081
  O   -2.07260407280985      2.82823820767362      2.11425290159746
  C   0.47599856470877      2.52638023235380      0.51217376303319
  H   0.17154472700292      1.72395065483539     -1.91600552618015
  H   -1.59741767675312      1.66093054181988     -1.99623232982558
  Rh  -2.16910244914994      1.14436642520104      1.12211994747945
  H   -0.59559030135392     -0.65615440920199     -1.98047950708105
  H   0.02973523097925     -0.34368799383047     -0.33644560775115
  N   -3.38620797811568      0.20569243902846      2.47197890378469
  C   -4.42232256908781      1.25311605458041      2.71035353489626
  C   -2.53512879104683     -0.11399261758716      3.68249195281499
  C   -3.99106557960853     -1.05784721304616      1.94236749543283
  C   -4.96399406818019      1.72140973461382      1.35284978427416
  H   -3.91792363885684      2.07931669974775      3.21522076234212
  H   -5.23213868014233      0.88027290741647      3.35326639278740
  C   -4.98687117230021     -1.74448840919626      2.87029369516804
  H   -3.15464613732189     -1.72605459080749      1.71649392326519
  H   -4.47848742072219     -0.82697144341157      0.99369956774561
  H   -4.57200898253837     -1.93967545576771      3.86287091409629
  H   -5.26263584813127     -2.70816255063455      2.43233953822056
  H   -5.90710754033902     -1.16710093064734      2.98900394419917
  C   -1.13848354317675      0.49860336488194      3.51233387600065
  H   -2.43696145737207     -1.20210645222850      3.73409857929808
  H   -3.03711749573042      0.22941245764995      4.59602956960782
  O   -3.95663351983080      1.84610424958971      0.37054255995094
  H   -5.47231578601845      2.68728300182337      1.51040339539095
  H   -5.74751323307310      1.01572520895209      1.00926920746351
  O   -0.70541845920992      0.34335837679478      2.18871468855383
  H   -0.44817851380088     -0.02491165734139      4.19592931236568
  H   -1.16067598135374      1.55886658949535      3.81217100422078
  H   -2.51932405238335      3.25963621926621     -0.80671852941520
  H   -1.02222617144583      4.23357302611990     -0.72699755060161
  H   -3.00975605475319      4.41623482998604      1.12361213584091
  H   -1.31491634961493      4.65247235783899      1.59513269677346
  C   1.55540862601159      1.45792229299300      0.52586382603429
  H   0.26457702015865      2.83720312716740      1.53744543994903
  H   0.84633755144351      3.39890820628967     -0.04913165885625
  H   1.26624284541331      0.61378191259159      1.15133572123335
  H   2.44919874981907      1.91418469692109      0.96402346178428
  H   1.83775071909407      1.11567686779429     -0.47430098965391
