13
Coordinates from ORCA-job orca
  Rh  0.00007314849196      0.00002207287181      0.00001662763573
  C   0.00000867132494      1.95805044479722      0.00001761649890
  O   -0.00004207642066      3.08674433029761      0.00002018654722
  C   3.36108436706281     -0.00016346381470     -0.00003620162544
  O   4.48779886342422      0.00007941050722     -0.00004143345954
  C   0.00000826829446     -1.95802101845043      0.00001766426016
  O   -0.00004274520972     -3.08671395416532      0.00002028134721
  C   -3.36105315880895     -0.00016255803675     -0.00003630376968
  O   -4.48776809590094      0.00007780664156     -0.00004163399188
  C   0.00000868009730      0.00002205750489      1.95804435419487
  O   -0.00004196819948      0.00002133744183      3.08673808792080
  C   0.00000846924568      0.00002209186492     -1.95801279811565
  O   -0.00004242340164      0.00002144254016     -3.08670644744270
