33
Coordinates from ORCA-job orca
  Rh  22.03891347409139     -4.69462619404613    -14.49738849203882
  O   21.66218892847226     -4.12262055254731    -16.71157774281090
  O   20.17359352728712     -5.93149647878507    -14.92061172540698
  O   24.56988641919656     -3.19278422060545    -13.81820970464402
  C   21.08197833682532     -3.19873792220061    -13.73267423815044
  O   20.98865584714483     -2.17311504683455    -13.20435849797058
  C   23.71641095655841     -3.88713443395542    -14.17498840581870
  H   18.39023710571119     -4.31911847352279    -17.19529878581304
  C   19.21446414125063     -5.51512602073348    -15.64946059933327
  C   19.31027378942399     -4.56900042883206    -16.67891465368236
  C   20.49127249083869     -3.97181465614271    -17.17013077495178
  H   20.67680396075123     -2.04892668107529    -18.07882990544731
  H   19.37238037931363     -3.03110580911116    -18.79693814914826
  C   20.37944239282131     -3.06097496507801    -18.37534786591377
  C   17.86178836344824     -6.12280914048736    -15.34955488104575
  H   17.94213837239639     -7.21484441094313    -15.36547572645151
  H   17.56092566833381     -5.83688724371409    -14.33491608452979
  H   17.08812479508743     -5.80689009494927    -16.05247591421961
  H   21.08757539378120     -3.38956067428891    -19.14267054547124
  H   22.09490189711462     -7.22738808033769    -15.70065432130382
  N   22.86208972682509     -6.56173149138796    -15.71171904251540
  H   24.42724263491230     -7.96267785373481    -16.20908044090956
  H   22.83471445980955     -6.10113039366889    -16.61789299144235
  C   24.16151317195254     -7.19878172990286    -15.46474985853326
  H   24.94067496351694     -6.43058627370243    -15.45917090767975
  H   24.15904586586951     -7.67346766659863    -14.47761395789064
  N   21.85257712747313     -6.08915032544419    -12.59538756295846
  C   21.80860216777506     -5.44427617221345    -11.27260733351346
  H   21.01207539745570     -4.69536351831620    -11.27036173583546
  H   21.63065684077902     -6.15082084493587    -10.44987636862941
  H   22.75426870311754     -4.92401079828856    -11.09336038220650
  H   20.95914392488358     -6.51138649806763    -12.83782545122790
  H   22.55827477576772     -6.81709390557973    -12.61616695250257
