33
Coordinates from ORCA-job orca
  Rh  21.76652358306746     -4.31640536930240    -14.23334599400995
  O   21.66672423305242     -3.93538483211614    -16.48855795773797
  O   19.75558035205607     -5.28588102837446    -14.75352493723191
  O   24.42873688545879     -3.06233606558000    -13.54353830060246
  C   21.69548376164970     -4.77044700872991    -12.38060752971020
  O   22.01237966919436     -4.84450864459223    -11.26965337515318
  C   23.45634650911570     -3.46354087048026    -14.02507048726926
  H   18.49854487765878     -3.82506376342924    -17.45048903245820
  C   18.96157081443070     -4.88101164876251    -15.65520138147859
  C   19.30157198491449     -4.08846656916630    -16.77065815345363
  C   20.60818491869518     -3.72110660125775    -17.15173753069470
  H   19.85643257844093     -2.81033748597868    -18.99225986515318
  H   21.43608157687409     -3.62406292338974    -19.12142723409361
  C   20.79809847994254     -3.01055507386239    -18.47615456248178
  C   17.51953170369611     -5.31999237010874    -15.50184961047680
  H   17.47251649388006     -6.41315165383090    -15.55635186724217
  H   17.15835543621786     -5.03744429958660    -14.50736323109376
  H   16.86170493586826     -4.89763571441978    -16.26476936977915
  H   21.33168825666662     -2.06923825937251    -18.30687878074056
  N   20.35995237680811     -2.38226399058294    -14.09360251674616
  C   20.99393933742910     -1.11454730122187    -13.70204921112934
  H   24.48384797874636     -6.49727706125905    -14.43021077749133
  H   22.70374031575954     -6.14998721749780    -16.04358584042527
  H   20.29235056220285     -0.26932132852022    -13.65968331311171
  H   21.46034306244017     -1.23298340882322    -12.71921632788575
  H   21.78546346805493     -0.87841948287655    -14.41919701464408
  N   22.49062871101768     -6.38991764823701    -15.08031285145900
  C   23.58634197537738     -7.12309519145559    -14.43331269556706
  H   23.31756941754466     -7.32392810698894    -13.39189334670661
  H   23.82520122707605     -8.07707854775997    -14.92453753971459
  H   19.61451323461754     -2.63546621458560    -13.45381556553989
  H   19.94593523847320     -2.32406123679181    -15.02115823706479
  H   21.62220704356035     -6.91605008105842    -15.07889856164978
