33
Coordinates from ORCA-job orca
  Rh  22.50849132165437     -3.82385937174185    -15.22858032034201
  O   21.26820999465626     -3.12752225050084    -16.71095214952187
  O   21.07685052565427     -5.55050706902349    -14.83349250618515
  H   21.29884687025586     -6.26611991208437    -12.76707190257479
  C   21.92075694865047     -2.42927560314899    -14.02020189101696
  O   21.88921435559896     -1.43462800504738    -13.43215559177610
  H   21.80702174755980     -6.51924283963806    -11.22583131043715
  H   18.50939366407174     -4.96812684624592    -16.82785215892546
  C   19.97002281409198     -5.62718278196509    -15.43859713808942
  C   19.48709966153833     -4.73886259375507    -16.42083648639796
  C   20.12695515576346     -3.62855367201599    -16.98734732290873
  H   19.28849761264835     -1.83664387493872    -17.79479511572272
  H   18.44823565227978     -3.31611166143059    -18.33556679038469
  C   19.41960464764419     -2.88144891107878    -18.09410801279446
  C   19.09327139774126     -6.80010555140203    -15.05214249856616
  H   19.64855802430288     -7.73119136878670    -15.20762069986418
  H   18.86175940427858     -6.73498572209115    -13.98246040911596
  H   18.15792818017962     -6.83949880659491    -15.61374801688746
  H   20.05157084305202     -2.88314589162517    -18.98820976516076
  H   20.46666776238852     -4.11859992956324    -12.28518278030407
  H   21.08769178239900     -4.24205966307433    -10.63284693986918
  N   21.66177868775000     -5.80708763265669    -11.93313334771511
  H   19.71892885395271     -5.25673553983227    -11.14100587394277
  C   20.67354722054133     -4.81674139582392    -11.46832367381905
  H   24.14083970853356     -5.51927727688350    -14.18503984905962
  H   23.07069028642621     -5.05686445778869    -13.02112592434828
  H   25.45855541913375     -3.50319611368983    -13.89602518480958
  H   25.33379518674896     -4.44799285569075    -12.38257693748340
  N   23.71763028678183     -4.70071025987221    -13.75473001813929
  H   24.30857955093158     -3.01227355352458    -12.64254896120590
  C   24.77266436303839     -3.87264309961539    -13.13009585091813
  C   23.96758674644733     -3.68100377487364    -16.37350846310580
  O   24.91149632328691     -3.44017571399475    -17.00308610858791
