47
Coordinates from ORCA-job orca
  Rh  -0.92661187871922      0.73137035871542     -0.08256934789827
  O   -2.52402475744647      1.71625526165618      0.15411828459434
  O   0.11957021766448      2.11284759174997      0.66039017838357
  O   -2.03776302656570     -0.64350093538480     -0.77745207461541
  C   -2.76211318696058     -1.28686245504342      0.24695304684116
  O   0.62080494072409     -0.30848639011992     -0.35846019918247
  C   1.06289129441797     -1.06068301898278      0.75560724189218
  N   -0.73326313280797      1.78628569595934     -1.86124857474522
  C   -1.91056960860486      2.74187353418636     -1.91480782578908
  C   -3.03761658292348      2.15966402428571     -1.08874754486638
  H   -2.20029787624997      2.91606791892316     -2.95174738608993
  H   -1.59847356270249      3.68846579277245     -1.46627236513677
  H   -3.48927105626220      1.29810339912762     -1.61112687401229
  H   -3.82256766277861      2.90369632550435     -0.91054774323055
  C   0.54033739642416      2.56427547894764     -1.65642825987316
  C   0.56540441631750      3.10375855663920     -0.24046516049969
  H   0.61267153827825      3.36262177013728     -2.40564937332612
  H   1.36745963270739      1.86454352198902     -1.80468107519568
  H   -0.06662269365326      3.99989964806665     -0.12357187646743
  H   1.58616025556974      3.40179359817893      0.03301784416704
  C   -0.55509719717217      0.98643441546463     -3.12651212280938
  C   -1.75073291533619      0.25889524581818     -3.70820633589329
  H   0.22474172134620      0.25043116476732     -2.90931064068514
  H   -0.17397232724712      1.68025589791400     -3.88944595035233
  O   -2.66231039296377      1.20043837265903     -4.27193488819374
  H   -2.23390617824748     -0.37522954760549     -2.95899529828105
  H   -1.33407502771964     -0.39435137409701     -4.48967653617605
  H   -3.31826166407221      0.72217435316874     -4.78966868281976
  C   0.36671476685837     -0.60709020955393      2.03398609534040
  H   2.14962404836241     -0.93509256946929      0.85663606138837
  H   0.89210296341171     -2.12887690102284      0.54678358113642
  C   -1.82009714712838     -1.56793536656801      1.39667417454452
  H   -3.19947505486839     -2.21441251342209     -0.14102309810533
  H   -3.58803206084305     -0.62703044140443      0.56970162141664
  N   -1.06329976638941     -0.29095340444952      1.70515600766166
  H   -1.10345044610460     -2.33441557058331      1.09308221832092
  H   -2.33499379676723     -1.91459889241149      2.29843170678861
  H   0.82644305746695      0.30885732685841      2.40709768994584
  H   0.41007090471443     -1.37145485467418      2.82009248576974
  C   -1.76245425269182      0.39508396728467      2.84344565382560
  C   -1.31340650608999      1.80886752178750      3.22083916045898
  H   -1.64547109886116     -0.24444648792674      3.72941532266738
  H   -2.82659801300142      0.42394882154181      2.58597100928505
  O   -1.94030445570200      2.14615620695134      4.44651625270390
  H   -1.55061254009460      2.51905166176865      2.42206363753702
  H   -0.23691440939695      1.85913357373824      3.40186965717848
  H   -2.83224208239113      2.46341976545737      4.26941492879671
