47
Coordinates from ORCA-job orca
  Rh  -0.92973465350519      0.73869944971265     -0.07401816193725
  O   -2.53119173730714      1.71566101500722      0.16699273492676
  O   0.11317297283837      2.12105874448226      0.67025340374124
  O   -2.03754051869890     -0.63899336606102     -0.77038687890956
  C   -2.76216080564799     -1.28259407448626      0.25342140855441
  O   0.62063989757544     -0.29457401704325     -0.35805226483017
  C   1.06116886616961     -1.05800827425250      0.74905999523504
  N   -0.74130514144211      1.79772641544249     -1.85036352300623
  C   -1.92067459823388      2.75048265950730     -1.89891307626072
  C   -3.04609684425339      2.16277537184245     -1.07419824206968
  H   -2.21166877997847      2.92897864850483     -2.93479634337567
  H   -1.61059253503292      3.69578735101338     -1.44616454986070
  H   -3.49691492214399      1.30204817879104     -1.59871509264478
  H   -3.83221693822277      2.90482718696951     -0.89295783387503
  C   0.53139388446710      2.57830437962927     -1.64627717666414
  C   0.55797296915776      3.11408074772450     -0.22926953087120
  H   0.59976537636009      3.37819876878347     -2.39413086738820
  H   1.35938907962378      1.88041692634463     -1.79814720088907
  H   -0.07413077985350      4.00984548394417     -0.10961651765397
  H   1.57821382131867      3.41190532299826      0.04635193403710
  C   -0.56395972972960      1.00207398741524     -3.11825991108415
  C   -1.75875179423213      0.27239513341530     -3.69902792581308
  H   0.21921834243134      0.26832785801229     -2.90549657379779
  H   -0.18746993282685      1.69943474666774     -3.88031896780012
  O   -2.67490521134877      1.21293104706460     -4.25700947216848
  H   -2.23800793598659     -0.36556886418198     -2.95060453686239
  H   -1.34193930158317     -0.37651821473750     -4.48401706716892
  H   -3.33219837704829      0.73415617282612     -4.77262628373193
  C   0.37134750582221     -0.60934142611819      2.03217647262283
  H   2.14883624750728     -0.93976401829971      0.84827854246882
  H   0.88276917308431     -2.12348220933679      0.53286650019753
  C   -1.82029317286177     -1.56511309830562      1.40316377798881
  H   -3.20039240568221     -2.20935934876279     -0.13549857156056
  H   -3.58733829672523     -0.62211361151715      0.57698929048827
  N   -1.06024767815297     -0.28990960573643      1.71112611404890
  H   -1.10605486493556     -2.33420047623893      1.10044049210884
  H   -2.33668795087610     -1.90870531999104      2.30513781048675
  H   0.83340634247295      0.30459409232350      2.40756834865026
  H   0.41666906734571     -1.37762333714250      2.81440152341601
  C   -1.75343560836667      0.39382521129509      2.85425967608894
  C   -1.30348660425233      1.80703440811216      3.23321311828691
  H   -1.63214306673271     -0.24708657192849      3.73863808394356
  H   -2.81889422812344      0.42308163050126      2.60217347087962
  O   -1.92482512748457      2.13977461031928      4.46316693586202
  H   -1.54556984212916      2.51943372693348      2.43800822924685
  H   -0.22611321755016      1.85747867541599      3.40883700105949
  H   -2.81698327802603      2.45901323204063      4.29102846148484
