57
Coordinates from ORCA-job orca
  Rh  1.52907607490359      2.50973171564983      3.25590749781361
  O   2.00787424437753      4.00268019108252      1.91778001419094
  O   -0.27468452595483      2.30489024675041      2.34938657637878
  C   1.01526079657866      1.26091339977916      4.45782889184703
  H   -2.46073017962661      3.21601770082815      0.09751449505753
  C   1.24764929987894      4.46576847209321      0.99946586739742
  C   -0.71307282210564      2.98397885643377      1.36665663897433
  O   0.64179229287900      0.48327479268254      5.23550238954082
  H   -2.78834444240511      2.65977485868608      1.76184138932039
  C   -0.03991684552536      4.01997453743525      0.70008858142498
  C   1.85007121746133      5.59280105132925      0.19865742934501
  C   -2.09762320088968      2.59073733970007      0.91534611798439
  H   -0.56075665099500      4.50656357504687     -0.11631015348028
  H   2.10112632760007      6.41974481267935      0.87216301766817
  H   1.18065610604245      5.95704306964226     -0.58294106135284
  H   2.78639714113439      5.25223367979678     -0.25642065978242
  H   -2.08777357916931      1.54428522221421      0.59240374496070
  C   5.28552609240787      0.86563380364846      5.08827027020766
  H   4.21351314932381      1.01142404902156      3.20348825231566
  H   3.23119087039768      0.62170614926469      4.59724503917159
  C   3.38331573125635      3.23250017983131      5.60834578152373
  C   4.34878026448737      3.55342365128420      3.32733571027521
  C   2.47166753410080      4.43591972343662      5.95265876270288
  H   3.03220223006402      2.39856432396220      6.22486396203630
  H   4.39915723300679      3.47904847674210      5.95107375830857
  C   5.84756860717240      3.78026014872959      3.65236280205963
  H   4.26760528491790      3.12744917876645      2.32143783899091
  H   3.84631308891139      4.51575295866860      3.27777126442824
  N   3.49922142524912      2.68434993721604      4.21431278311099
  C   4.04109956984677      1.27038599630283      4.25415824127978
  C   6.75407241239162      2.88538289482075      2.79943713460670
  H   6.67975680589189      3.18160802845314      1.74593376677113
  H   7.80345998046427      2.98333595661213      3.09886416106749
  H   6.48370944538093      1.82840809740026      2.85977448128783
  C   6.20490498180347      5.24777173428728      3.38833120246461
  H   5.94783408885431      5.52883066924364      2.35941295423098
  H   5.66812946687115      5.92181876781088      4.06285087070901
  H   7.27863378499215      5.41875363506503      3.52139170007476
  C   5.01384224404551      0.66803934592209      6.58631539197141
  H   5.85696957681088      0.14464312547818      7.05017638430051
  H   4.87813004710940      1.60532704747482      7.12907660457861
  H   4.11851511787353      0.05294659453842      6.74100517644461
  C   5.76618060580847     -0.47102261333560      4.50161779422216
  H   6.03621013278648     -0.38197134259385      3.44386740953522
  H   6.64154631634040     -0.83948930908145      5.04541584814625
  H   4.97917458496218     -1.23155981057112      4.58122840157618
  C   0.99320804753617      4.08850564150378      6.15302638102733
  H   0.49033533110016      4.91742287832773      6.66480360142754
  H   0.49053361358329      3.91693501164549      5.19422281648853
  H   0.86629859134896      3.18697307298907      6.76230787659341
  C   2.59775842802913      5.67827896847540      5.07052797929671
  H   2.18071058649384      5.49445535885862      4.07423814058136
  H   2.02941052428052      6.50029818480528      5.51946355999511
  H   3.63480180818081      6.01289400003510      4.96702859751171
  H   6.09682450423308      1.58971815384140      4.97686884024081
  H   2.85579669729826      4.71430181067333      6.94789137463263
  H   6.04060168362388      3.58504129270471      4.71372260124236
