60
Coordinates from ORCA-job orca
  Rh  0.95353182144164      2.51680317855803      4.61368914537637
  O   0.88710845490311      4.41838706203977      3.36900189559822
  O   0.47158253728378      1.71339800069673      2.45757055702583
  C   1.11103724007518      1.88888867480769      6.29475782257862
  H   0.35702444454822      1.92039799387000     -0.82841815594114
  C   0.83790085196944      4.63930621005001      2.10965724646111
  C   0.47050342011900      2.28900295169566      1.32401079534316
  O   1.17073557703528      1.50934558494690      7.41277733993198
  H   -0.80566250878128      1.01252621106363      0.16914351066134
  C   0.65280483665485      3.67333189498272      1.10567950264750
  C   0.99836994585463      6.09312191362480      1.69879020940493
  C   0.22038716016798      1.39483218628710      0.11948463645252
  H   0.63184731218115      4.02278010171715      0.07861870283782
  H   0.25825729322997      6.70166766308792      2.22800617200327
  H   0.88596733594713      6.23778571392896      0.62197179556476
  H   1.98804717869134      6.44714191467184      2.00819915880721
  H   0.88885008104932      0.53026511274037      0.16393204787383
  H   -3.02394212275595      5.10986576818755      5.46992930697876
  H   -3.26594077715629      3.82988008133554      6.68179823795014
  H   -2.39728880422360      5.30670669767746      7.10674825724317
  C   -1.81280895684026      1.60152551752960      5.58396710963455
  C   -1.87583046768864      3.18371962523141      3.66907371665117
  C   -1.60846923748028      0.34829824308049      4.74278720643927
  H   -1.34099772991964      1.47737667537675      6.56024616992791
  H   -2.88055435890095      1.78659789791037      5.74951223177140
  C   -3.39808534407992      3.01607284159952      3.59874844967729
  H   -1.58755649549494      4.21470925372771      3.46378801258610
  H   -1.41889717593233      2.56099001889407      2.90551393010547
  H   -2.10498463894311      0.41919624095072      3.77169160825882
  H   -2.02015310791567     -0.51367222172870      5.27671205909701
  H   -0.54048649819413      0.19366310507241      4.56749839988538
  H   -3.94248684715600      3.57811643023389      4.35808421353295
  H   -3.69733454291394      1.96718399432168      3.66789857827264
  H   -3.71871313567950      3.38155197957750      2.61755570997316
  C   -1.20492025097430      3.97668352243200      5.93363774460925
  C   -2.56333832167242      4.57896225110869      6.30593057194134
  H   -0.56471672248454      4.73805733683070      5.48335025942319
  H   -0.70385545013358      3.61602746505987      6.83325992877123
  N   -1.19120610773358      2.81822874654793      4.96578247842027
  C   3.78334081586954      1.50132876882343      5.27100004984741
  C   5.30713266274223      1.38423521947698      5.18637082262455
  H   3.50071674965225      1.78846829658550      6.28320914936206
  H   3.31347472963952      0.53930613428077      5.06686900598206
  N   3.12230827591473      2.49552088781531      4.35271116236793
  H   5.80773036170314      2.27685970826935      5.56783639247901
  H   5.66051186139284      1.19283518818902      4.16975850551778
  H   5.61703483777393      0.54010861133813      5.81040858122659
  C   3.46087951893325      2.19419067856575      2.91977659726697
  C   3.51361227141674      3.91469088182468      4.73282576295763
  C   3.25362601184773      0.72986221838314      2.54581260383943
  H   2.82955788065661      2.84241822253237      2.31071566389105
  H   4.50379255827631      2.47283935563687      2.73570402056809
  C   4.77410363279652      4.50496119714253      4.09060013286098
  H   3.60007162167262      3.90866098907710      5.82164612901987
  H   2.66425205309597      4.54399286919839      4.46978448491623
  H   4.03194274330442      0.08712121195139      2.96661048768115
  H   3.30160913790757      0.63958303602909      1.45671825430620
  H   2.27177819778364      0.38429203245095      2.87157894482290
  H   5.67044585564434      3.89723193904985      4.22936874762120
  H   4.63488468401394      4.67743059606274      3.02026959958773
