19
Coordinates from ORCA-job orca
  Rh  0.76932737969365      2.38898901964568      4.43037797390771
  O   0.86613599819731      4.32335142717162      3.78440161528298
  O   0.83691493287437      1.74269743865177      2.49491321068382
  C   0.70955512870021      2.97777895131097      6.17932782178993
  C   0.68406768552703      0.63819513422084      5.01041480052248
  C   0.93958263436630      4.70824677647980      2.56713515634542
  C   0.91452303097257      2.48335276023657      1.45550529404900
  O   0.67432962307726      3.35620009803060      7.26173671894788
  O   0.63264485864135     -0.45410929702660      5.35719966141274
  C   0.96556696251732      3.88098087650440      1.43972596720443
  C   1.00320443537950      6.20200626906640      2.39521128468709
  C   0.95177709414634      1.72288480857652      0.15731356419530
  H   1.03058827250202      4.36369953770294      0.47203210095958
  H   0.12445453251695      6.65613619643514      2.86455220577403
  H   1.04997500753482      6.49884286851868      1.34620358858810
  H   1.88266737594918      6.58670337002284      2.92222784110507
  H   1.81435557261861      1.04828503179100      0.16101832708762
  H   1.01036574657274      2.38247876235118     -0.70997921039717
  H   0.05632372162720      1.09745994593886      0.08090205851815
