36
Coordinates from ORCA-job orca
  Rh  1.10362903125388      2.24096385250677      4.27108034668411
  O   1.26517289928551      4.43245982079152      3.41723824107501
  O   0.98950354715447      1.82619390779897      2.18624093180106
  C   1.20175423033243      1.96428561793962      6.06916107012444
  H   4.41404118855941     -0.64672490710694      3.41509607581086
  C   0.80077654233596      4.81441750918703      2.31141473508887
  C   0.61454113233498      2.57478235578076      1.21623603001556
  O   1.26026799490084      1.76433187208785      7.20691066704570
  H   3.21846069590547      0.95220620502258      1.42000171120777
  C   0.48237954254170      3.96336118389157      1.22592282664973
  C   0.59240817000306      6.30469657625245      2.14293075482696
  C   0.30290749559475      1.81876350028235     -0.05414257028224
  H   0.11462327900376      4.42809715256184      0.31831076854674
  H   -0.10020272168153      6.65391847850241      2.91598835782945
  H   0.20117929303877      6.57275556982922      1.15892868381699
  H   1.54325776713520      6.82239912418441      2.30807050476681
  H   1.17974466222417      1.23367653672921     -0.35254333526002
  H   0.01532825458864      2.47862380092995     -0.87498899317476
  H   -0.50492809666589      1.10520111228446      0.14066777017403
  H   3.53736393931940      0.76655003328033      5.54410116715252
  H   2.70509577641088     -0.15688828313092      3.42866341410969
  H   4.95259923724110      1.01796941433738      1.77851390763921
  H   5.04537429754281      1.30859368861811      4.75285794721867
  C   3.73951458319490      3.54088980300124      5.02776385822727
  H   3.46878407046694      3.34990311886616      6.06966393067949
  H   4.82997495215838      3.67700253466436      4.96256401793270
  H   3.23136197987910      4.44653374705271      4.68900609806827
  N   3.31749751221074      2.40135883704592      4.18294574566484
  C   3.96647658764682      1.12540422399628      4.60494352388142
  C   3.73649635309010      0.21137144402176      3.41216280584778
  C   3.95233767314861      1.14847463861275      2.20290283450821
  C   3.80529174338167      2.57271453671466      2.77329891580097
  H   3.11388107541733      3.21068376470105      2.22085931094339
  H   4.78350587749958      3.07564057136778      2.81550226113780
  C   -0.69265740163043      1.83699523995072      4.33398263299988
  O   -1.80577827199743      1.55344829939480      4.32825161201443
