41
Coordinates from ORCA-job orca
  Rh  1.13309257630834      2.73389675736034      4.47853178028761
  O   0.85793405116662      4.85822192587118      3.11799532909487
  O   1.18453984130408      1.99219894691552      2.51199485039056
  C   1.08774192715357      2.94090091748045      6.29153613645646
  O   -1.84443782533902      2.44210601410466      4.43634584568212
  C   0.33161165109031      4.85136613994174      1.98538126223429
  C   0.64114779900008      2.41970797781076      1.42327870443343
  O   1.00817538286751      3.05966328279353      7.43764116425757
  C   -0.70449108092631      2.56206765651338      4.48163404015639
  C   0.20116566543736      3.70578341380319      1.14423704387521
  C   -0.21443415887892      6.16797814603819      1.46336147188409
  C   0.51686194640238      1.35265987764718      0.36108503713946
  H   -0.25415410869044      3.85944307240077      0.17218261534602
  H   -1.12909923699917      6.40852747445337      2.01778318682410
  H   -0.44913671038313      6.14320194598038      0.39643888170044
  H   0.50565838190533      6.96525887022555      1.66805499284534
  H   1.50732867051222      0.93386689774925      0.15105848126035
  H   0.08468642403121      1.73347732497445     -0.56624915008724
  H   -0.10213495750508      0.53332803467407      0.74263369761973
  H   5.65485223772314      4.65460285599044      3.92288212413022
  H   5.68898929407944      3.31802690782105      2.74792846766466
  H   5.11284829463154      4.91399124600459      2.26980036571893
  C   3.81005832273960      1.42451932964430      3.75914201549526
  C   4.01071616500928      2.92526038102174      5.71947470237832
  C   3.35063985864968      0.21235227856787      4.55327603754671
  H   3.36808474183216      1.39061213845555      2.75995243802035
  H   4.90258571069925      1.41222541904497      3.64564550356488
  C   5.49027405992774      2.57464003021829      5.89065709481431
  H   3.83035248588884      3.97261395673471      5.98868352164822
  H   3.44904159719752      2.31537907525406      6.43153105079834
  H   3.78697710272377      0.17433427569296      5.55622938544261
  H   3.65363694420298     -0.69675830284978      4.02421685225397
  H   2.25978017520817      0.21330647711041      4.65134522855435
  H   6.15709319784516      3.11014793219085      5.21525295852292
  H   5.67201074939877      1.50298987480324      5.77196182761692
  H   5.77441013441567      2.83732192241422      6.91523852708032
  C   3.66875729958985      3.86284856730100      3.43017413299567
  C   5.12225933579431      4.18891265029577      3.09029361551085
  H   3.18241336676082      4.74639501377935      3.85495485164190
  H   3.12252917727782      3.62986899025061      2.51129445446215
  N   3.38870014305102      2.72262570316457      4.36630802616565
