39
Coordinates from ORCA-job orca
  Rh  1.61203674637542      2.26740738032756      3.33456824924724
  O   1.92075710803389      4.06251293725440      2.36844442109411
  O   -0.13551531745082      2.02256016338454      2.33847709284290
  C   1.38971234395530      0.63191961442693      4.07000205824501
  H   -2.32078966643617      3.06564501587859      0.14380201076991
  C   1.14912784254159      4.57417542413900      1.48514150546114
  C   -0.62270128221486      2.82352324858246      1.47796891634546
  O   1.23919144702791     -0.43487724737430      4.50250083699081
  H   -2.68068649723720      2.30322661035441      1.71466668110549
  C   -0.05638694197208      4.03222218766074      1.03919075050771
  C   1.63412608421879      5.88131660370192      0.91029033805567
  C   -1.94618680832038      2.37974323381060      0.90593115205974
  H   -0.60465732224552      4.59038107280543      0.28917505110326
  H   1.76277675734285      6.60735677966567      1.72044283238559
  H   0.94954556931279      6.29129879399956      0.16546107176090
  H   2.61754447654779      5.73185157717673      0.45128436324280
  H   -1.83705255295900      1.37964721088622      0.47439868946833
  H   6.26350345339704      3.50544443434350      3.50867621621441
  H   6.32850182475808      2.01359771815560      4.47602818083570
  H   6.53749219909765      1.95262073187572      2.72709797670321
  C   3.69502767746639      1.78860065429429      5.56331880167704
  C   3.59204188358490      4.09404124880557      4.68192722076653
  C   2.64422665982087      2.02532332586472      6.63717256636440
  H   3.66136250987111      0.74507734830663      5.23332980650840
  H   4.69563480583378      1.96314125117473      5.98338413583919
  C   4.66781930256290      4.54419787480930      5.67315715922592
  H   3.70325941121716      4.62481847252755      3.73449422503801
  H   2.60797972152942      4.37280673922262      5.07478390703283
  H   2.73826651526375      3.00751037794325      7.10838481727778
  H   2.76027989363405      1.26894735375874      7.41984055186973
  H   1.63614028320558      1.94346551872509      6.22132751019011
  H   5.68351455378269      4.30199947191210      5.35824455303541
  H   4.51926294908192      4.13919966450991      6.67731193636358
  H   4.60057255910387      5.63446693606514      5.75395546830343
  C   4.49371960256384      2.23109146449931      3.27624410976139
  C   5.98614159190858      2.44887943640126      3.53273419717690
  H   4.19871905601227      2.77286406551241      2.37133415683686
  H   4.30429266344900      1.16914562337665      3.08487036715277
  N   3.51249472260529      2.62961502753467      4.34202896356580
