15
Coordinates from ORCA-job orca
  Rh  0.76831482935051      2.48138056112186      4.24799788561509
  O   0.86061370438536      4.33915233836312      3.81230348292251
  O   0.82983637830214      1.71110985584962      2.50021153008588
  C   0.93791980500125      4.71575987633873      2.58228549506048
  C   0.91150661102612      2.46652531013076      1.45937398312898
  C   0.96306799005540      3.86595696458857      1.46956216065113
  C   1.00523445145344      6.20845984130315      2.40679228757049
  C   0.95185631881201      1.70944535129704      0.15981732572160
  H   1.03085018835682      4.34864723301657      0.50129672957272
  H   0.12690620516461      6.67459364818198      2.86553379549502
  H   1.05070991066236      6.48949813570995      1.35357351515100
  H   1.88873324246745      6.60132870810330      2.92131826579639
  H   1.82010086977027      1.04187581990916      0.14793078455220
  H   1.00679729518851      2.38235997866094     -0.69718048258297
  H   0.05804720000375      1.08332537742523      0.06870724125946
