370
C40 H30 F4 N4 O4 S2 Zn, 0.63(C H4 O)
Zn    4.411242    4.101404    4.569962
Zn   10.841861    9.088897   14.405920
 S    4.070329    1.973427    6.597914
 S   11.182775   11.216874   12.377968
 S    6.217741    6.112647    5.663352
 S    9.035363    7.077654   13.312530
 F   11.511395   11.378140    2.444283
 F    3.741708    1.812160   16.531599
 F    1.756403    0.917494    0.996044
 F   13.496701   12.272807   17.979838
 O    6.677180    4.735311    5.652536
 O    8.575923    8.454990   13.323346
 O    7.018496    7.058714    4.920446
 O    8.234608    6.131587   14.055436
 O    2.914925    1.162200    6.893748
 O   12.338178   12.028101   12.082134
 N    4.373523    2.163390    5.022536
 N   10.879580   11.026910   13.953346
 O    4.053590    3.340394    7.086353
 O   11.199514    9.849907   11.889529
 F    8.132038    7.795441    0.227521
 F    7.121065    5.394859   18.748361
 N    2.460498    4.523320    4.061029
 N   12.792606    8.666981   14.914854
 N    4.699325    5.982667    5.139048
 N   10.553778    7.207634   13.836834
 N    5.450433    3.719667    2.837084
 N    9.802671    9.470634   16.138798
 C    5.492567    1.156063    7.265296
 C    9.760536   12.034237   11.710586
 C   10.353244    5.651606    4.253254
 C    4.899859    7.538695   14.722628
 H    9.411538    5.665461    4.131695
 H    5.841565    7.524840   14.844187
 C    8.422691    1.760190    4.002013
 C    6.830412   11.430110   14.973869
 H    7.694262    1.426605    4.512806
 H    7.558841   11.763696   14.463076
 C    5.921361    7.639647    9.952280
 C    9.331742    5.550654    9.023602
 C    6.139289    6.690560    7.333609
 C    9.113814    6.499741   11.642273
 C    6.915626    7.770978    7.742539
 C    8.337477    5.419323   11.233343
 H    7.515910    8.188655    7.136450
 H    7.737194    5.001646   11.839432
 C    3.854770    7.090241    5.030316
 C   11.398333    6.100060   13.945566
 C   10.977924    6.910970    4.637326
 C    4.275180    6.279331   14.338556
 C    5.170474    6.538728    9.521718
 C   10.082629    6.651573    9.454164
 H    4.582028    6.109868   10.132286
 H   10.671076    7.080433    8.843596
 C    8.701348   11.268570    7.816925
 C    6.551756    1.921731   11.158957
 H    7.854115   10.842966    7.872240
 H    7.398989    2.347335   11.103642
 C    5.266249    6.061040    8.223578
 C    9.986854    7.129261   10.752304
 H    4.746442    5.316820    7.943741
 H   10.506662    7.873481   11.032141
 C    1.683979    3.388318    3.645457
 C   13.569125    9.801983   15.330425
 C    5.593788    2.530876    2.350353
 C    9.659315   10.659425   16.625529
 H    6.145712    2.454765    1.580710
 H    9.107392   10.735535   17.395172
 C    1.394947    1.587686    2.099871
 C   13.858157   11.602615   16.876011
 C    9.099081    2.913854    4.410374
 C    6.154022   10.276446   14.565508
 H    8.835542    3.369926    5.201004
 H    6.417561    9.820375   13.774878
 C    4.281197    8.403836    5.301482
 C   10.971907    4.786465   13.674400
 H    5.188137    8.557670    5.540066
 H   10.064967    4.632631   13.435816
 C    7.859668    1.136296    7.663410
 C    7.393435   12.054005   11.312472
 H    8.704863    1.566582    7.614945
 H    6.548240   11.623719   11.360937
 C    4.419956    1.100702    4.123649
 C   10.833148   12.089599   14.852233
 C    6.801047    8.230752    9.046183
 C    8.452057    4.959549    9.929699
 H    7.333990    8.964800    9.328202
 H    7.919113    4.225501    9.647680
 C    2.071823    2.725976    2.485461
 C   13.181281   10.464324   16.490421
 H    2.795619    3.053956    1.964573
 H   12.457485   10.136344   17.011309
 C    5.008407    1.299917    2.846003
 C   10.244697   11.890384   16.129879
 C   11.095902   11.230569    8.207638
 C    4.157201    1.959732   10.768244
 C    7.226084   11.195022    4.402025
 C    8.027020    1.995279   14.573857
 H    6.841841   11.023066    5.253511
 H    8.411262    2.167235   13.722371
 C   10.113627    8.024476    4.582486
 C    5.139477    5.165825   14.393396
 H    9.203954    7.893010    4.341530
 H    6.049149    5.297291   14.634352
 C   11.886602    9.480285    5.228046
 C    3.366501    3.710015   13.747837
 H   12.203788   10.353706    5.425755
 H    3.049316    2.836594   13.550127
 C    5.767910    8.160920   11.349475
 C    9.485193    5.029381    7.626407
 H    4.963197    8.717685   11.403993
 H   10.289907    4.472616    7.571889
 H    6.553040    8.697451   11.585934
 H    8.700063    4.492850    7.389948
 H    5.687038    7.408202   11.971903
 H    9.566065    5.782099    7.003979
 C    6.730111    1.792554    7.193757
 C    8.522993   11.397747   11.782125
 H    6.800014    2.666289    6.827446
 H    8.453090   10.524011   12.148436
 C    6.158635    4.776582    2.186022
 C    9.094468    8.413719   16.789860
 C    8.817353    1.112990    2.857578
 C    6.435750   12.077311   16.118304
 C    7.266411   10.184745    3.463099
 C    7.986693    3.005556   15.512783
 H    6.889599    9.338417    3.673067
 H    8.363505    3.851884   15.302816
 C   10.555957    9.302156    4.870919
 C    4.697146    3.888144   14.104963
 H    9.963009   10.042728    4.825586
 H    5.290095    3.147573   14.150296
 C    7.491524    4.603617    1.807832
 C    7.761580    8.586684   17.168050
 H    7.954610    3.790454    1.970968
 H    7.298494    9.399846   17.004914
 C    9.849145   10.627098    8.288855
 C    5.403959    2.563203   10.687027
 H    9.774540    9.761289    8.672775
 H    5.478564    3.429011   10.303107
 C    6.171962    7.004345    1.298330
 C    9.081142    6.185956   17.677552
 H    5.731803    7.827339    1.120962
 H    9.521300    5.362962   17.854920
 C    7.485175    6.817671    0.906478
 C    7.767929    6.372629   18.069404
 C    5.503405    5.979834    1.952618
 C    9.749698    7.210467   17.023264
 H    4.605142    6.099628    2.238414
 H   10.647962    7.090673   16.737468
 C    8.104564    5.678434    1.182197
 C    7.148539    7.511866   17.793685
 C   12.338415   10.519269    8.683743
 C    2.914688    2.671032   10.292139
 H    4.618522   10.777778    8.121108
 H   10.634582    2.412523   10.854774
 H   12.203360    9.550855    8.625544
 H    3.049743    3.639446   10.350338
 H   12.521555   10.768689    9.613751
 H    2.731549    2.421612    9.362131
 C    7.849984   10.381706    2.213157
 C    7.403120    2.808595   16.762725
 H    7.877858    9.679394    1.574049
 H    7.375245    3.510907   17.401833
 C    5.058211    0.233933    1.925673
 C   10.194893   12.956367   17.050210
 H    5.472353    0.371932    1.082138
 H    9.780750   12.818369   17.893744
 O    4.058957    9.405934    0.381036
 O   11.194147    3.784367   18.594846
 H    4.110264   10.199075    0.651689
 H   11.142839    2.991225   18.324193
 C    3.093952    8.687461    1.178402
 C   12.159152    4.502840   17.797480
 H    2.974259    7.785908    0.812566
 H   12.278844    5.404393   18.163316
 H   10.717323    9.162930    1.161438
 H    4.535780    4.027371   17.814444
 H    3.415065    8.624899    2.102053
 H   11.838039    4.565402   16.873829
 F    9.493660    5.511890    0.903631
 F    5.759444    7.678411   18.072251
 C   12.143513   12.494942    2.857578
 C    3.109591    0.695359   16.118304
 C    1.873245    5.651606    4.253254
 C   13.379859    7.538695   14.722628
 C    5.375188   -0.113382    7.816925
 C    9.877915   13.303682   11.158957
 N   10.940497    4.523320    4.061029
 N    4.312606    8.666981   14.914854
 C    2.497924    6.910970    4.637326
 C   12.755179    6.279331   14.338556
 C   12.334770    7.090241    5.030316
 C    2.918333    6.100060   13.945566
 C    8.818727   12.538015    7.265296
 C    6.434377    0.652286   11.710586
 C    0.619082    2.913854    4.410374
 C   14.634022   10.276446   14.565508
 C    0.337354    1.112990    2.857578
 C   14.915750   12.077311   16.118304
 C   10.163978    3.388318    3.645457
 C    5.089125    9.801983   15.330425
 C    3.406602    9.480285    5.228046
 C   11.846501    3.710015   13.747837
 C    7.769743   -0.151382    8.207638
 C    7.483361   13.341683   10.768244
 C    3.899924   -0.186930    4.402025
 C   11.353179   13.377230   14.573857
 C   11.185828   12.518248    7.663410
 C    4.067276    0.672053   11.312472
 C    7.746115   12.482654    4.123649
 C    7.506988    0.707647   14.852233
 C   12.761196    8.403836    5.301482
 C    2.491907    4.786465   13.674400
 F    8.185236   -0.003811    2.444283
 C    9.874946    1.587686    2.099871
 C    5.378157   11.602615   16.876011
 F    7.067868   13.194112   16.531599
 H   13.098521   10.777778    8.121108
 H    2.154582    2.412523   10.854774
 C    8.384370   11.615885    1.925673
 C    6.868733    1.574416   17.050210
 C    4.523824   -1.000246    2.213157
 C   10.729279   14.190546   16.762725
 H    2.237324    9.162930    1.161438
 H   13.015780    4.027371   17.814444
 C   11.748851   13.142142    4.002013
 C   13.201106   12.969637    2.099871
 C    2.051998    0.220664   16.876011
 C    3.504253    0.048159   14.973869
 H    0.931539    5.665461    4.131695
 H   14.321565    7.524840   14.844187
 H    4.527955   -0.538985    7.872240
 C    6.522985   -0.754853    8.288855
 C    8.730118   13.945154   10.687027
 H   10.725148   13.729286   11.103642
 C    1.633627    8.024476    4.582486
 C   13.619477    5.165825   14.393396
 N   13.179325    5.982667    5.139048
 N    2.073779    7.207634   13.836834
 S    7.396488   13.355378    6.597914
 C   10.056270   13.174505    7.193757
 C    5.196833    0.015795   11.782125
 S    7.856615   -0.165078   12.377968
 C   -0.057308    1.760190    4.002013
 H    0.355543    3.369926    5.201004
 H   14.897561    9.820375   13.774878
 C   15.310412   11.430110   14.973869
 F   -0.294764   -0.003811    2.444283
 F   15.547867   13.194112   16.531599
 C   10.551822    2.725976    2.485461
 C    4.701281   10.464324   16.490421
 C    2.075958    9.302156    4.870919
 H    3.723788   10.353706    5.425755
 H   11.529316    2.836594   13.550127
 C   13.177146    3.888144   14.104963
 C    9.012256   -0.862683    8.683743
 C    6.240848   14.052984   10.292139
 C    3.940251   -1.197206    3.463099
 H    3.515682   -0.358886    5.253511
 H   11.737422   13.549187   13.722371
 C   11.312852   14.387507   15.512783
 H   12.031023   12.948533    7.614945
 H    3.222081    0.241767   11.360937
 C    8.334566   12.681869    2.846003
 N    7.699683   13.545342    5.022536
 N    7.553421   -0.355041   13.953346
 C    6.918537    0.508432   16.129879
 H   13.668136    8.557670    5.540066
 H    1.584967    4.632631   13.435816
 F   10.236402    0.917494    0.996044
 F    5.016701   12.272807   17.979838
 H    8.798513   11.753884    1.082138
 H    6.454591    1.436417   17.893744
 H    4.551699   -1.702558    1.574049
 H   10.701405   14.892859   17.401833
 H   11.020422   12.808556    4.512806
 C   12.425241   14.295806    4.410374
 F   13.562562   12.299445    0.996044
 C   13.877982   14.107928    2.485461
 C    1.375122   -0.917627   16.490421
 F    1.690542    0.890855   17.979838
 C    2.827863   -1.105505   14.565508
 H    4.232682    0.381744   14.463076
 H    6.448380   -1.620662    8.672775
 H    8.804723   14.810963   10.303107
 H    0.723955    7.893010    4.341530
 H   14.529149    5.297291   14.634352
 O    6.241085   12.544152    6.893748
 O    7.379749   14.722346    7.086353
 H   10.126173   14.048241    6.827446
 H    5.126930   -0.857940   12.148436
 O    7.873354   -1.532045   11.889529
 O    9.012019    0.646149   12.082134
 H   -0.785737    1.426605    4.512806
 H   16.038841   11.763696   14.463076
 H   11.275618    3.053956    1.964573
 H    3.977485   10.136344   17.011309
 H    1.483009   10.042728    4.825586
 H   13.770095    3.147573   14.150296
 H    8.877201   -1.831097    8.625544
 H    9.195395   -0.613263    9.613751
 H    9.772362   -0.604173    8.121108
 H    5.480742   13.794474   10.854774
 H    6.057708   13.803564    9.362131
 H    6.375902   15.021398   10.350338
 H    3.563439   -2.043534    3.673067
 H   11.689664   15.233835   15.302816
 C    8.919948   13.912828    2.350353
 C    6.333156   -0.722527   16.625529
 H   12.161702   14.751877    5.201004
 C   13.490138   14.770270    3.645457
 H   14.601778   14.435908    1.964573
 C    1.762966   -1.579969   15.330425
 H    0.651326   -1.245607   17.011309
 H    3.091402   -1.561577   13.774878
 N    8.776592   15.101618    2.837084
 H    9.471871   13.836717    1.580710
 H    5.781232   -0.646416   17.395172
 N    6.476511   -1.911318   16.138798
 N   14.266657   15.905271    4.061029
 N    0.986447   -2.714971   14.914854
 C    9.484795   16.158534    2.186022
 C    5.768309   -2.968233   16.789860
 C   13.679404   17.033558    4.253254
 C    1.573700   -3.843257   14.722628
 C    8.829565   17.361785    1.952618
 C   10.817683   15.985568    1.807832
 C    4.435420   -2.795267   17.168050
 C    6.423539   -4.171485   17.023264
 H   12.737698   17.047412    4.131695
 C   14.304083   18.292922    4.637326
 C    0.949020   -5.102621   14.338556
 H    2.515406   -3.857111   14.844187
 C    9.498121   18.386297    1.298330
 H    7.931301   17.481579    2.238414
 C   11.430724   17.060386    1.182197
 H   11.280769   15.172406    1.970968
 H    3.972334   -1.982105   17.004914
 C    3.822380   -3.870085   17.793685
 H    7.321802   -4.291279   16.737468
 C    5.754982   -5.195996   17.677552
 C   13.439786   19.406428    4.582486
 C   15.660930   18.472192    5.030316
 C   -0.407826   -5.281891   13.945566
 C    1.813318   -6.216127   14.393396
 H    9.057963   19.209291    1.120962
 C   10.811334   18.199623    0.906478
 F   12.819819   16.893842    0.903631
 F    2.433285   -3.703541   18.072251
 C    4.441769   -5.009322   18.069404
 H    6.195141   -6.018990   17.854920
 H   12.530114   19.274961    4.341530
 C   13.882117   20.684108    4.870919
 C   16.087356   19.785787    5.301482
 N   16.505484   17.364619    5.139048
 N   -1.252381   -4.174318   13.836834
 C   -0.834252   -6.595487   13.674400
 C    1.370987   -7.493807   14.104963
 H    2.722990   -6.084661   14.634352
 F   11.458198   19.177393    0.227521
 F    3.794906   -5.987092   18.748361
 H   13.289168   21.424680    4.825586
 C   15.212762   20.862237    5.228046
 H   16.994296   19.939621    5.540066
 H   -1.741192   -6.749320   13.435816
 C    0.040342   -7.671936   13.747837
 H    1.963935   -8.234379   14.150296
 H   15.529947   21.735658    5.425755
 H   -0.276844   -8.545357   13.550127
