390

Zn    8.059268    6.177031   11.809172
Zn    7.637423    6.959405    3.026844
 S    6.424862    7.411337   10.681041
 S    9.271828    5.725099    4.154975
 S    7.276694    3.952135   14.072703
 S    8.419997    9.184302    0.763313
 O    6.401817    5.058786   14.391529
 O    9.294873    8.077650    0.444487
 O    3.372438    1.950736    0.346124
 O   12.324253   11.185700   14.489892
 N    5.484700    6.419054    6.985390
 N   10.211991    6.717382    7.850626
 N    5.531875    7.235681    8.103284
 N   10.164816    5.900755    6.732732
 N    8.338583    4.721499   10.271568
 N    7.358108    8.414937    4.564448
 N    8.178702    4.414619   12.854815
 N    7.517989    8.721817    1.981201
 N    8.129478    7.652493   13.420957
 N    7.567213    5.483943    1.415059
 N   10.051712    6.909188   11.732470
 N    5.644979    6.227248    3.103546
 C    6.268392    5.406810    7.266829
 C    9.428299    7.729626    7.569187
 C    6.854880    5.533089    8.557414
 C    8.841811    7.603348    6.278602
 C    6.325476    6.720976    9.096110
 C    9.371215    6.415460    5.739906
 C    4.747379    8.428240    8.049874
 C   10.949312    4.708196    6.786142
 C    5.203358    9.614415    8.609043
 C   10.493333    3.522022    6.226973
 H    6.037975    9.646057    9.061839
 H    9.658716    3.490380    5.774177
 C    4.419065   10.753362    8.494954
 C   11.277626    2.383074    6.341062
 H    4.718401   11.567965    8.880839
 H   10.978290    1.568471    5.955177
 C   12.932835   10.719560    7.826444
 C    2.763856    2.416877    7.009572
 H   12.399355   11.503311    7.765171
 H    3.297335    1.633126    7.070845
 C   12.502373    9.539695    7.248432
 C    3.194318    3.596741    7.587584
 H   11.676599    9.516435    6.780059
 H    4.020092    3.620001    8.055957
 C    3.546899    8.389275    7.351543
 C   12.149792    4.747161    7.484473
 H    3.255386    7.580369    6.947706
 H   12.441305    5.556067    7.888309
 C    6.444959    4.292368    6.276970
 C    9.251732    8.844068    8.559046
 H    5.717768    4.320297    5.621366
 H    9.978923    8.816139    9.214650
 H    6.428051    3.432426    6.747420
 H    9.268640    9.704010    8.088596
 H    7.304088    4.396826    5.817202
 H    8.392603    8.739611    9.018814
 C    7.735661    4.578990    9.139283
 C    7.961029    8.557446    5.696733
 H    7.891659    3.775042    8.656816
 H    7.805032    9.361395    6.179200
 C    8.993288    3.472202   12.191051
 C    6.703403    9.664234    2.644965
 C    9.110553    3.653712   10.793053
 C    6.586138    9.482725    4.042963
 C    9.950795    2.849079   10.033004
 C    5.745896   10.287357    4.803012
 H   10.047694    3.006519    9.100412
 H    5.648997   10.129917    5.735604
 C   10.647223    1.814022   10.642468
 C    5.049468   11.322414    4.193548
 H   11.220583    1.259156   10.127065
 H    4.476107   11.877280    4.708951
 C   10.506210    1.590568   12.004562
 C    5.190481   11.545868    2.831454
 H   12.265271   12.537567   12.411811
 H    3.431420    0.598869    2.424205
 C    9.696263    2.415925   12.781821
 C    6.000428   10.720511    2.054194
 H    9.620555    2.261315   13.715897
 H    6.076136   10.875121    1.120119
 C    6.279578    2.612496   13.477037
 C    9.417113   10.523940    1.358979
 C    5.389173    2.843203   12.438961
 C   10.307517   10.293233    2.397055
 H    5.327608    3.705832   12.045362
 H   10.369083    9.430604    2.790654
 C    4.587282    1.808403   11.977857
 C   11.109409   11.328033    2.858159
 H    3.971650    1.969833   11.272405
 H   11.725040   11.166603    3.563611
 C    5.975588   12.205700   12.537768
 C    9.721103    0.930737    2.298248
 C    6.870794   12.006129   13.585043
 C    8.825897    1.130307    1.250973
 H    6.932963   11.146553   13.985913
 H    8.763728    1.989883    0.850103
 C    7.671349   13.030837   14.055048
 C    8.025342    0.105599    0.780968
 H    8.280115   12.875261   14.767770
 H    7.416576    0.261175    0.068246
 C    5.143956   11.050875   12.041949
 C   10.552735    2.085562    2.794067
 H   14.219053   11.375403   11.386642
 H    1.477637    1.761033    3.449374
 H   14.397326   10.640398   12.796064
 H    1.299365    2.496038    2.039952
 H    5.726929   10.385476   11.621051
 H    9.969761    2.750960    3.214965
 C    7.144992    7.938872   14.283375
 C    8.551699    5.197564    0.552641
 H    6.301691    7.521205   14.160978
 H    9.395000    5.615231    0.675038
 C    2.625998    7.347004    0.506947
 C   13.070692    5.789432   14.329069
 H    1.908908    7.515948    1.106767
 H   13.787783    5.620489   13.729249
 C    3.849539    7.969230    0.672664
 C   11.847152    5.167206   14.163352
 H    3.993023    8.560512    1.402003
 H   11.703668    4.575924   13.434013
 C    9.536739    9.185549   14.598343
 C    6.159952    3.950888    0.237673
 H   10.373554    9.628685   14.677271
 H    5.323137    3.507751    0.158745
 C    9.312626    8.277468   13.566053
 C    6.384065    4.858968    1.269963
 C   10.358528    7.919054   12.578122
 C    5.338163    5.217382    2.257894
 C   11.596232    8.556158   12.525752
 C    4.100459    4.580278    2.310264
 H   11.786831    9.286500   13.103169
 H    3.909860    3.849936    1.732847
 C   12.544993    8.110185   11.621497
 C    3.151697    5.026251    3.214519
 H   13.395735    8.530728   11.572092
 H    2.300956    4.605708    3.263924
 C   12.243034    7.049979   10.792014
 C    3.453656    6.086457    4.044002
 H   12.890672    6.709712   10.186409
 H    2.806019    6.426724    4.649607
 C   10.982382    6.493414   10.861003
 C    4.714309    6.643022    3.975013
 H   10.763420    5.786101   10.265040
 H    4.933271    7.350335    4.570976
 N    5.895103    1.379006    8.539611
 N    9.801588   11.757431    6.296405
 C    7.867781   12.560502    9.311084
 C    7.828909    0.575935    5.524932
 C    8.719888   11.952557   10.305245
 C    6.976803    1.183879    4.530771
 H    9.570552   11.694726    9.892656
 H    6.126139    1.441710    4.943360
 H    8.280167   11.156414   10.670063
 H    7.416523    1.980022    4.165953
 H    8.888171   12.593454   11.027611
 H    6.808519    0.542982    3.808405
 O    8.044092    3.415798   15.182140
 O    7.652598    9.720638   -0.346124
 C    3.206434   10.719560    7.826444
 C   12.490256    2.416877    7.009572
 C   14.145465   10.753362    8.494954
 C    1.551226    2.383074    6.341062
 C   13.273299    8.389275    7.351543
 C    2.423391    4.747161    7.484473
 C    2.775973    9.539695    7.248432
 C   12.920718    3.596741    7.587584
 H   10.966635    0.866192   12.411811
 H    4.730055   12.270244    2.424205
 C    6.372713    1.359463   14.055048
 C    9.323977   11.776973    0.780968
 C    4.676952    0.534325   12.537768
 C   11.019739   12.602111    2.298248
 C    5.885918   13.479778   11.977857
 C    9.810773   -0.343341    2.858159
 C    7.578214   14.283870   13.477037
 C    8.118477   -1.147434    1.358979
 H    4.670926   10.640398   12.796064
 H    4.492653   11.375403   11.386642
 H   11.204038    1.761033    3.449374
 H   11.025765    2.496038    2.039952
 C    7.297653    8.812066   15.342963
 C    8.399038    4.324370   -0.506947
 C    2.473337    6.473810   -0.552641
 C   13.223354    6.662626   15.388657
 C    4.865084    7.720487   -0.237673
 C   10.831606    5.415949   15.073689
 C    8.521194    9.434292   15.508680
 C    7.175497    3.702144   -0.672664
 C    6.569146    0.889127    9.311084
 C    9.127545   12.247309    5.524932
 N    7.193738   13.050380    8.539611
 N    8.502953    0.086056    6.296405
 H    2.672955   11.503311    7.765171
 H   13.023736    1.633126    7.070845
 C   14.929758    9.614415    8.609043
 H   14.444801   11.567965    8.880839
 H    1.251890    1.568471    5.955177
 C    0.766933    3.522022    6.226973
 C   14.473780    8.428240    8.049874
 H   12.981786    7.580369    6.947706
 C    1.222911    4.708196    6.786142
 H    2.714905    5.556067    7.888309
 H    1.950199    9.516435    6.780059
 H   13.746492    3.620001    8.055957
 C    5.572158    0.334755   13.585043
 H    6.981480    1.203887   14.767770
 C   10.124533   12.801681    1.250973
 H    8.715211   11.932550    0.068246
 C    3.845320   -0.620500   12.041949
 C   11.851370   13.756936    2.794067
 C    6.687809   14.514577   12.438961
 H    5.270286   13.641207   11.272405
 C    9.008882   -1.378141    2.397055
 H   10.426405   -0.504771    3.563611
 S    8.575329   15.623509   14.072703
 S    7.121361   -2.487073    0.763313
 H    6.580563    8.981009   15.942782
 H    9.116128    4.155427   -1.106767
 H    1.630036    6.056143   -0.675038
 N    3.457823    6.187431   -1.415059
 N   12.238868    6.949005   16.251075
 H   14.066654    7.080293   15.511054
 C    4.640971    6.812406   -1.269963
 H    5.701899    8.163623   -0.158745
 H    9.994791    4.972813   14.994761
 C   11.055719    6.324030   16.105979
 H    8.664678   10.025574   16.238019
 H    7.032013    3.110862   -1.402003
 C    7.421252    0.281183   10.305245
 C    8.275439   12.855253    4.530771
 H   15.764375    9.646057    9.061839
 H   -0.067684    3.490380    5.774177
 N   15.258275    7.235681    8.103284
 N    0.438416    5.900755    6.732732
 H    5.634327   -0.524822   13.985913
 H   10.062364   13.661258    0.850103
 H    3.372290   -1.030976   12.796064
 H    3.194017   -0.295971   11.386642
 H    4.428294   -1.285899   11.621051
 H   11.268397   14.422335    3.214965
 H   12.502673   13.432408    3.449374
 H   12.324401   14.167413    2.039952
 H    6.626244   15.377206   12.045362
 H    9.070447   -2.240770    2.790654
 O    7.700453   16.730160   14.391529
 O    9.342728   15.087173   15.182140
 N    9.477338   16.085994   12.854815
 N    6.219353   -2.949558    1.981201
 O    6.353963   -1.950736   -0.346124
 O    7.996238   -3.593724    0.444487
 C    5.686873    6.453992   -2.257894
 C   10.009818    6.682444   17.093910
 H    6.981532   -0.514960   10.670063
 H    7.589536    0.922080   11.027611
 H    8.271916    0.023352    9.892656
 H    7.424774   13.113084    4.943360
 H    8.715159   13.651396    4.165953
 H    8.107155   12.214356    3.808405
 C   16.051876    6.720976    9.096110
 C   -0.355185    6.415460    5.739906
 C   10.291923   15.143577   12.191051
 C    5.404767   -2.007140    2.644965
 N    5.380057    5.444127   -3.103546
 C    6.924577    7.091096   -2.310264
 C    8.772114    6.045340   17.146280
 N   10.316633    7.692310   17.939562
 S   16.151263    7.411337   10.681041
 C   16.581280    5.533089    8.557414
 C   -0.884589    7.603348    6.278602
 S   -0.454572    5.725099    4.154975
 C   10.994899   14.087299   12.781821
 C   10.409188   15.325086   10.793053
 C    5.287502   -2.188650    4.042963
 C    4.701792   -0.950863    2.054194
 C    6.310727    5.028352   -3.975013
 H    7.115176    7.821438   -1.732847
 C    7.873339    6.645123   -3.214519
 C    7.823352    6.491313   18.050535
 H    8.581514    5.314998   16.568863
 C    9.385963    8.108084   18.811029
 C   17.462062    4.578990    9.139283
 C   15.994792    5.406810    7.266829
 C   -0.298102    7.729626    7.569187
 C   -1.765371    8.557446    5.696733
 C   11.804845   13.261943   12.004562
 H   10.919190   13.932690   13.715897
 N    9.637218   16.392874   10.271568
 C   11.249430   14.520453   10.033004
 C    4.447260   -1.384017    4.803012
 N    6.059472   -3.256438    4.564448
 H    4.777500   -0.796254    1.120119
 C    3.891846   -0.125506    2.831454
 H    6.091766    4.321039   -4.570976
 C    7.571380    5.584917   -4.044002
 H    8.724080    7.065667   -3.263924
 H    6.972610    6.070770   18.099940
 C    8.125311    7.551519   18.880018
 H    9.604925    8.815397   19.406992
 N   18.064983    4.721499   10.271568
 H   17.618059    3.775042    8.656816
 C   16.171359    4.292368    6.276970
 N   15.211100    6.419054    6.985390
 N    0.485591    6.717382    7.850626
 C   -0.474668    8.844068    8.559046
 N   -2.368292    8.414937    4.564448
 H   -1.921368    9.361395    6.179200
 C   11.945858   13.485396   10.642468
 C    9.034297   16.250365    9.139283
 H   11.346330   14.677894    9.100412
 H    4.350361   -1.541457    5.735604
 C    3.750832   -0.348960    4.193548
 C    6.662394   -3.113929    5.696733
 H    8.219017    5.244650   -4.649607
 H    7.477674    7.891786   19.485623
 C   18.836953    3.653712   10.793053
 H   15.444168    4.320297    5.621366
 H   16.154451    3.432426    6.747420
 H   17.030488    4.396826    5.817202
 H   -1.333798    8.739611    9.018814
 H   -0.457760    9.704010    8.088596
 H    0.252522    8.816139    9.214650
 C   -3.140263    9.482725    4.042963
 H   12.519219   12.930530   10.127065
 H    9.190294   15.446416    8.656816
 C    8.153515   17.204463    8.557414
 H    3.177472    0.205906    4.708951
 C    7.543175   -4.068027    6.278602
 H    6.506396   -2.309980    6.179200
 C   19.677195    2.849079   10.033004
 C   18.719688    3.472202   12.191051
 C   -3.022997    9.664234    2.644965
 C   -3.980505   10.287357    4.803012
 C    7.567028   17.078184    7.266829
 C    7.624111   18.392351    9.096110
 C    8.072579   -5.255914    5.739906
 C    8.129663   -3.941748    7.569187
 C   20.373623    1.814022   10.642468
 H   19.774094    3.006519    9.100412
 N   17.905102    4.414619   12.854815
 C   19.422663    2.415925   12.781821
 C   -3.725973   10.720511    2.054194
 N   -2.208412    8.721817    1.981201
 H   -4.077404   10.129917    5.735604
 C   -4.676932   11.322414    4.193548
 C    7.743594   15.963742    6.276970
 N    6.783335   18.090429    6.985390
 N    6.830510   18.907056    8.103284
 S    7.723498   19.082712   10.681041
 S    7.973193   -5.946275    4.154975
 N    8.866181   -5.770619    6.732732
 N    8.913355   -4.953992    7.850626
 C    7.953096   -2.827306    8.559046
 C   20.232610    1.590568   12.004562
 H   20.946984    1.259156   10.127065
 H   19.346955    2.261315   13.715897
 H   -3.650264   10.875121    1.120119
 C   -4.535919   11.545868    2.831454
 H   -5.250293   11.877280    4.708951
 H    7.016403   15.991672    5.621366
 H    7.726686   15.103800    6.747420
 H    8.602724   16.068200    5.817202
 C    6.046015   20.099615    8.049874
 C    9.650676   -6.963179    6.786142
 H    7.093967   -2.931764    9.018814
 H    7.970004   -1.967364    8.088596
 H    8.680287   -2.855236    9.214650
 H   20.693036    0.866192   12.411811
 H   -4.996345   12.270244    2.424205
 C    4.845535   20.060649    7.351543
 C    6.501993   21.285789    8.609043
 C    9.194697   -8.149353    6.226973
 C   10.851156   -6.924213    7.484473
 C    4.074608   21.211069    7.248432
 H    4.554021   19.251743    6.947706
 H    7.336610   21.317431    9.061839
 C    5.717700   22.424737    8.494954
 C    9.978991   -9.288301    6.341062
 H    8.360080   -8.180995    5.774177
 H   11.142669   -6.115307    7.888309
 C   11.622082   -8.074633    7.587584
 H    3.248834   21.187810    6.780059
 C    4.505070   22.390934    7.826444
 H    6.017036   23.239339    8.880839
 H    9.679654  -10.102903    5.955177
 C   11.191621   -9.254498    7.009572
 H   12.447856   -8.051373    8.055957
 H    3.971590   23.174685    7.765171
 H   11.725100  -10.038249    7.070845
