578

Cd   -0.470380    3.002336    7.357351
Cd    3.509080    4.669442    3.809947
 S   -2.493801    1.425779    7.429716
 S    5.532501    6.245999    3.737583
 S    2.293203    4.857633    7.041428
 S    0.745498    2.814145    4.125870
 O    2.655969    3.459406    7.087438
 O    0.382731    4.212372    4.079861
 O    2.807075    5.626904    5.903034
 O    0.231626    2.044874    5.264265
 N    8.200556    1.441801    4.049151
 N   -5.161856    6.229977    7.118148
 N    8.706340    0.901867    5.224174
 N   -5.667639    6.769911    5.943124
 N   -1.824869    4.581349    6.299138
 N    4.863570    3.090430    4.868161
 N    0.730379    4.926931    7.184147
 N    2.308321    2.744847    3.983152
 N   -0.690380    3.499853    9.720463
 N    3.729080    4.171925    1.446835
 N    0.776569    1.480648    8.633662
 N    2.262132    6.191131    2.533637
 C   -3.258168    1.813095    5.940444
 C    6.296869    5.858683    5.226854
 C   -3.305278    3.003355    5.180956
 C    6.343979    4.668424    5.986342
 C    8.602980    2.697842    4.036867
 C   -5.564279    4.973936    7.130432
 C    8.409066   -0.463706    5.506371
 C   -5.370365    8.135484    5.660927
 C    7.961505   -0.849036    6.767495
 C   -4.922805    8.520814    4.399804
 H    7.881832   -0.224996    7.453055
 H   -4.843132    7.896774    3.714243
 C    7.634546   -2.185074    6.984140
 C   -4.595846    9.856853    4.183158
 H    7.342581   -2.457210    7.824926
 H   -4.303881   10.128988    3.342373
 C    3.716455    9.169808    5.961439
 C   -0.677754   -1.498030    5.205860
 H    3.499514    8.279177    6.116329
 H   -0.460814   -0.607399    5.050969
 C    4.144892    9.572671    4.708133
 C   -1.106192   -1.900892    6.459165
 H    4.205484    8.951873    4.017994
 H   -1.166783   -1.280095    7.149304
 C    8.507685   -1.386919    4.475630
 C   -5.468984    9.058697    6.691669
 H    8.800289   -1.119036    3.633839
 H   -5.761589    8.790815    7.533460
 C   -2.689137    4.280356    5.391237
 C    5.727838    3.391422    5.776062
 H   -2.939419    4.962996    4.811989
 H    5.978120    2.708782    6.355309
 C   -1.314733    5.901457    6.366700
 C    4.353433    1.770321    4.800598
 C    0.006454    6.080656    6.842315
 C    3.032246    1.591122    4.324983
 C    0.493149    7.387699    6.959349
 C    2.545552    0.284079    4.207950
 H    1.356406    7.525465    7.277729
 H    1.682295    0.146313    3.889570
 C   -0.284553    8.482030    6.609924
 C    3.323254   -0.810252    4.557375
 H    0.061291    9.341647    6.693678
 H    2.977409   -1.669869    4.473620
 C   -1.574407    8.300003    6.136989
 C    4.613107   -0.628225    5.030310
 H   -2.094990    9.033281    5.899684
 H    5.133690   -1.361503    5.267615
 C   -2.081766    7.012662    6.020737
 C    5.120466    0.659116    5.146561
 H   -2.947888    6.889528    5.706489
 H    5.986588    0.782250    5.460809
 C    3.062427    5.578600    8.469279
 C   -0.023727    2.093179    2.698019
 C    2.531471    5.290370    9.721357
 C    0.507229    2.381408    1.445942
 H    1.720032    4.842885    9.792604
 H    1.318669    2.828893    1.374694
 C    3.220906    5.673601   10.865558
 C   -0.182206    1.998177    0.301740
 H    8.501892   10.086028    0.534913
 H   -5.463192   -2.414250   10.632385
 C   -8.267556    6.350497   10.780798
 C   11.306257    1.321281    0.386500
 C   -7.765221    6.658307    9.524142
 C   10.803922    1.013471    1.643157
 H   -6.967006    7.128826    9.454235
 H   10.005707    0.542952    1.713064
 C    4.258636    6.274301    8.367545
 C   -1.219936    1.397477    2.799753
 H    4.609263    6.483413    7.531226
 H   -1.570562    1.188365    3.636073
 C   -1.874540   11.344718    0.866247
 C    4.913240   -3.672940   10.301051
 H   -1.836300   10.590266    1.458449
 H    4.875001   -2.918487    9.708849
 H    1.698908   -0.212798    1.303224
 H    1.339793    7.884576    9.864074
 H   -0.983597   11.613442    0.632069
 H    4.022297   -3.941664   10.535230
 C    8.222094    3.577204    2.890990
 C   -5.183394    4.094574    8.276308
 H    7.851648    4.396939    3.226232
 H   -4.812948    3.274839    7.941066
 H    7.569447    3.129787    2.347366
 H   -4.530746    4.541991    8.819932
 H    9.000523    3.769512    2.363000
 H   -5.961822    3.902266    8.804298
 C    0.079934    2.776441   10.547402
 C    2.958766    4.895337    0.619897
 C    5.980438    7.805152    0.686454
 C   -2.941738   -0.133374   10.480844
 H    6.521979    7.294358    1.244037
 H   -3.483278    0.377420    9.923261
 C    5.426341    8.987626    1.135380
 C   -2.387641   -1.315848   10.031919
 H    5.596119    9.284234    2.000064
 H   -2.557419   -1.612456    9.167235
 C    4.617036    9.729413    0.291913
 C   -1.578336   -2.057634   10.875385
 H    4.228563   10.525495    0.577349
 H   -1.189863   -2.853717   10.589949
 C   -1.232791    4.635656   10.174414
 C    4.271492    3.036122    0.992884
 H   -1.778463    5.126465    9.602760
 H    4.817164    2.545313    1.564539
 C    0.699972    1.544788    9.977534
 C    2.338729    6.126990    1.189764
 C    1.192879    0.521482   10.787275
 C    1.845822    7.150296    0.380023
 H    6.752162    5.185133    0.544964
 H   -3.713461    2.486645   10.622334
 C    1.797877   -0.570812   10.187257
 C    1.240824    8.242590    0.980042
 H    2.131182   -1.267041   10.707206
 H    0.907519    8.938819    0.460092
 C    1.904213   -0.618045    8.813455
 C    1.134487    8.289823    2.353843
 H    2.319632   -1.336229    8.394458
 H    0.719069    9.008007    2.772840
 N    9.324283    7.084086    1.601391
 N   -6.285583    0.587692    9.565908
 C   -2.457847    6.426010    1.725348
 C    5.496547    1.245769    9.441951
 C   -1.327151    5.526833    1.864939
 C    4.365852    2.144945    9.302360
 H   -0.571598    5.886890    1.394796
 H    3.610299    1.784888    9.772503
 H   -1.553135    4.668327    1.498652
 H    4.591835    3.003451    9.668647
 H   -1.108184    5.428801    2.795175
 H    4.146885    2.242977    8.372124
 O   -4.051647    7.198848    9.539888
 O    7.090348    0.472930    1.627411
 H   -4.236236    7.004799    8.817699
 H    7.274937    0.666979    2.349599
 C   -2.911149    8.022454    9.405992
 C    5.949849   -0.350676    1.761307
 H    1.403201   -3.976683   10.275031
 H    1.635499   11.648461    0.892267
 H    0.890317   -3.494792    8.873535
 H    2.148384   11.166571    2.293763
 H   -2.207872    7.527583    8.979624
 H    5.246572    0.144196    2.187674
 C    1.379040    0.424896    8.069490
 C    1.659661    7.246882    3.097809
 H    1.446695    0.390955    7.142604
 H    1.592006    7.280823    4.024695
 C    9.438432    1.813095    5.940444
 C   -6.399731    5.858683    5.226854
 N   -3.990260    0.901867    5.224174
 N    7.028961    6.769911    5.943124
 C   -4.093620    2.697842    4.036867
 C    7.132321    4.973936    7.130432
 C    9.391322    3.003355    5.180956
 C   -6.352621    4.668424    5.986342
 C    7.739122   -3.115049    5.961439
 C   -4.700422   10.786827    5.205860
 C    3.611879   10.099783    6.984140
 C   -0.573178   -2.428004    4.183158
 C    4.485017   10.897938    4.475630
 C   -1.446317   -3.226160    6.691669
 C    8.167560   -2.712186    4.708133
 C   -5.128859   10.383964    6.459165
 H    2.866660    5.472950   11.702212
 C    4.429044    6.350497   10.780798
 C   -1.390343    1.321281    0.386500
 H    0.172040    2.198828   -0.534913
 C   -9.475694    5.673601   10.865558
 C   -7.509772    6.731640   12.033545
 C   10.548472    0.940139   -0.866247
 C   12.514394    1.998177    0.301740
 C   -8.437964    6.274301    8.367545
 C   11.476664    1.397477    2.799753
 C    4.931379    6.658307    9.524142
 C   -1.892678    1.013471    1.643157
 C   -2.632324   10.963576   -0.386500
 H   -2.323760   12.072059    1.303224
 H    5.362460   -4.400281    9.864074
 C    5.671025   -3.291797   11.553798
 C    0.345206    3.192073   11.853753
 C    2.693494    4.479705   -0.686454
 C    5.715166    7.389520   -0.619897
 C   -2.676466    0.282258   11.787195
 C    4.402441    9.248735   -0.992884
 C   -1.363740   -1.576957   12.160183
 C   -1.018196    5.116334   11.459211
 C    4.056896    2.555444   -0.291913
 H    1.116930    0.572054   11.712262
 H    1.921770    7.099724   -0.544964
 C   10.238753    6.426010    1.725348
 C   -7.200053    1.245769    9.441951
 N   -3.372317    7.084086    1.601391
 N    6.411017    0.587692    9.565908
 H   -3.132351    8.790065    8.873535
 H   -2.619466    8.308174   10.275031
 H    5.658167   -0.636395    0.892267
 H    6.171051   -1.118286    2.293763
 S   10.202799    1.425779    7.429716
 S   -7.164099    6.245999    3.737583
 C   -4.287534   -0.463706    5.506371
 C    7.326235    8.135484    5.660927
 N   -4.496044    1.441801    4.049151
 C   -4.474506    3.577204    2.890990
 C    7.513206    4.094574    8.276308
 N    7.534744    6.229977    7.118148
 C   10.007463    4.280356    5.391237
 C   -6.968762    3.391422    5.776062
 H    7.522182   -4.005680    6.116329
 H   -4.483481   11.677458    5.050969
 C    3.938838   11.435821    6.767495
 H    3.319914    9.827647    7.824926
 H   -0.281213   -2.155869    3.342373
 C   -0.900137   -3.764042    4.399804
 H    4.777622   11.165821    3.633839
 C    4.386398   11.821151    5.506371
 C   -1.347698   -4.149373    5.660927
 H   -1.738921   -3.494042    7.533460
 H    8.228151   -3.332983    4.017994
 H   -5.189451   11.004762    7.149304
 C    5.186828    6.731640   12.033545
 C   -2.148128    0.940139   -0.866247
 C  -10.165129    5.290370    9.721357
 H   -9.829940    5.472950   11.702212
 H   -7.958992    7.458980   12.470523
 H   -7.471532    5.977187   12.625747
 H   -6.618829    7.000363   11.799367
 H   10.510233    1.694591   -1.458449
 H    9.657529    0.671415   -0.632069
 H   10.997692    0.212798   -1.303224
 H   12.868640    2.198828   -0.534913
 C   13.203829    2.381408    1.445942
 C   -9.634173    5.578600    8.469279
 H   -8.087337    6.483413    7.531226
 C   12.672873    2.093179    2.698019
 H   11.126038    1.188365    3.636073
 H    5.729594    7.128826    9.454235
 H   -2.690893    0.542952    1.713064
 C   -3.840462   10.286680   -0.301740
 C   -2.129989   11.271386   -1.643157
 C    5.168690   -3.599608   12.810455
 C    6.879162   -2.614901   11.469039
 H    0.886747    2.681279   12.411336
 C   -0.208891    4.374547   12.302678
 C    3.247591    3.297231   -1.135380
 H    2.151954    4.990499   -1.244037
 C    6.335204    6.157867   -1.189764
 N    4.944852    8.112932   -1.446835
 N   -1.906152   -0.441154   12.614134
 C   -3.296503    1.513911   12.357063
 H    3.856769    9.739544   -1.564539
 H   -0.818068   -2.067766   12.731837
 H   -1.406669    5.912416   11.744648
 H    4.445369    1.759362   -0.577349
 C   11.369449    5.526833    1.864939
 C   -8.330748    2.144945    9.302360
 C   -4.188915   -1.386919    4.475630
 C   -4.735095   -0.849036    6.767495
 C    7.773795    8.520814    4.399804
 C    7.227616    9.058697    6.691669
 H   -5.127153    3.129787    2.347366
 H   -4.844952    4.396939    3.226232
 H   -3.696077    3.769512    2.363000
 H    7.883652    3.274839    7.941066
 H    6.734778    3.902266    8.804298
 H    8.165854    4.541991    8.819932
 H    9.757181    4.962996    4.811989
 N   10.871730    4.581349    6.299138
 N   -7.833030    3.090430    4.868161
 H   -6.718480    2.708782    6.355309
 H    3.859165   12.059861    7.453055
 H   -0.820464   -4.388083    3.714243
 N    4.683672   13.186724    5.224174
 N   -1.644972   -5.514946    5.943124
 H    4.737608    7.458980   12.470523
 H    5.225068    5.977187   12.625747
 H    6.077771    7.000363   11.799367
 H   -2.186367    1.694591   -1.458449
 H   -3.039071    0.671415   -0.632069
 H   -1.698908    0.212798   -1.303224
 H  -10.976568    4.842885    9.792604
 H   14.015269    2.828893    1.374694
 S  -10.403397    4.857633    7.041428
 S   13.442097    2.814145    4.125870
 C   -4.529897    9.903449   -1.445942
 H   -4.194708   10.086028    0.534913
 C   -2.802732   10.887380   -2.799753
 H   -1.331774   11.741905   -1.713064
 H    4.370475   -4.070127   12.880362
 C    5.841432   -3.215601   13.967052
 H    7.233408   -2.414250   10.632385
 C    7.568597   -2.231671   12.613240
 H   -0.039113    4.671155   13.167362
 H    3.077813    3.000623   -2.000064
 N    6.411801    6.093726   -2.533637
 C    6.828111    5.134561   -0.380023
 C   -3.789410    2.537217   11.547322
 N   -3.373100    1.578052   13.700935
 H   11.143465    4.668327    1.498652
 H   12.125002    5.886890    1.394796
 H   11.588416    5.428801    2.795175
 H   -8.549715    2.242977    8.372124
 H   -9.086301    1.784888    9.772503
 H   -8.104765    3.003451    9.668647
 C   -4.529040   -2.712186    4.708133
 H   -3.896311   -1.119036    3.633839
 C   -5.062054   -2.185074    6.984140
 H   -4.814768   -0.224996    7.453055
 H    7.853468    7.896774    3.714243
 C    8.100754    9.856853    4.183158
 H    6.935011    8.790815    7.533460
 C    7.567741   10.383964    6.459165
 C   11.381867    5.901457    6.366700
 C   -8.343167    1.770321    4.800598
 C    5.415764   14.097952    5.940444
 C   -2.377064   -6.426174    5.226854
 N  -11.966221    4.926931    7.184147
 O  -10.040630    3.459406    7.087438
 O   -9.889525    5.626904    5.903034
 O   13.079331    4.212372    4.079861
 O   12.928226    2.044874    5.264265
 N   15.004921    2.744847    3.983152
 H   -5.341336    9.455964   -1.374694
 C   -3.998941   10.191678   -2.698019
 H   -2.452105   11.096492   -3.636073
 C    7.037641   -2.519900   13.865317
 H    5.490806   -3.424714   14.803371
 H    8.380037   -1.784186   12.541993
 C    7.014272    5.037975   -3.097809
 C    7.433109    4.042267   -0.980042
 C   -4.394408    3.629511   12.147340
 C   -3.975571    2.633804   14.265107
 H   -4.468449   -3.332983    4.017994
 C   -4.957478   -3.115049    5.961439
 H   -5.354019   -2.457210    7.824926
 H    8.392719   10.128988    3.342373
 C    7.996178   10.786827    5.205860
 H    7.507149   11.004762    7.149304
 C   10.614834    7.012662    6.020737
 C   12.703054    6.080656    6.842315
 C   -9.664353    1.591122    4.324983
 C   -7.576134    0.659116    5.146561
 C    5.368654   15.288212    5.180956
 S    6.180132   13.710636    7.429716
 S   -3.141431   -6.038858    3.737583
 C   -2.329954   -7.616433    5.986342
 C  -12.690146    6.080656    6.842315
 C   15.728846    1.591122    4.324983
 S   -4.768165    9.470712   -4.125870
 S    7.806866   -1.798933   15.293168
 H    7.081927    5.004034   -4.024695
 C    7.539445    3.995034   -2.353843
 H    7.766414    3.346038   -0.460092
 H   -4.727713    4.325740   11.627391
 C   -4.500745    3.676744   13.521142
 H   -4.043226    2.667744   15.191993
 H   -5.174418   -4.005680    6.116329
 H    8.213119   11.677458    5.050969
 H    9.748712    6.889528    5.706489
 C   11.122193    8.300003    6.136989
 N   13.426979    4.926931    7.184147
 C   13.189749    7.387699    6.959349
 C  -10.151048    0.284079    4.207950
 N  -10.388279    2.744847    3.983152
 C   -8.083492   -0.628225    5.030310
 H   -6.710012    0.782250    5.460809
 C    4.580312   14.982699    4.036867
 C    5.984795   16.565213    5.391237
 C   -2.946095   -8.893435    5.776062
 C   -1.541612   -7.310921    7.130432
 C  -14.011333    5.901457    6.366700
 C  -12.203451    7.387699    6.959349
 C   15.242152    0.284079    4.207950
 C   17.050033    1.770321    4.800598
 N   -6.330989    9.540010   -3.983152
 O   -4.405399    8.072485   -4.079861
 O   -4.254293   10.239983   -5.264265
 O    7.444099   -0.400707   15.247159
 O    7.292994   -2.568205   16.431563
 N    9.369689   -1.868232   15.150450
 H    7.954864    3.276849   -2.772840
 H   -4.916163    4.394929   13.940139
 H   10.601610    9.033281    5.899684
 C   12.412047    8.482030    6.609924
 H   14.053006    7.525465    7.277729
 H  -11.014305    0.146313    3.889570
 C   -9.373346   -0.810252    4.557375
 H   -7.562910   -1.361503    5.267615
 N    4.177889   13.726658    4.049151
 C    4.199427   15.862061    2.890990
 H    5.734513   17.247853    4.811989
 N    6.849063   16.866205    6.299138
 N   -3.810362   -9.194427    4.868161
 H   -2.695813   -9.576075    6.355309
 C   -1.160726   -8.190283    8.276308
 N   -1.139188   -6.054880    7.118148
 N  -14.521469    4.581349    6.299138
 C  -14.778366    7.012662    6.020737
 C  -12.981153    8.482030    6.609924
 H  -11.340194    7.525465    7.277729
 H   14.378895    0.146313    3.889570
 C   16.019854   -0.810252    4.557375
 C   17.817066    0.659116    5.146561
 N   17.560170    3.090430    4.868161
 C   -7.054914   10.693734   -4.324983
 C   10.093614   -3.021956   15.492281
 H   12.757891    9.341647    6.693678
 H   -9.719190   -1.669869    4.473620
 H    3.546779   15.414644    2.347366
 H    3.828981   16.681796    3.226232
 H    4.977855   16.054369    2.363000
 C    7.359200   18.186314    6.366700
 C   -4.320499  -10.514536    4.800598
 H   -0.790280   -9.010018    7.941066
 H   -1.939155   -8.382591    8.804298
 H   -0.508079   -7.742866    8.819932
 C  -15.385737    4.280356    5.391237
 H  -15.644488    6.889528    5.706489
 C  -14.271007    8.300003    6.136989
 H  -12.635309    9.341647    6.693678
 H   15.674009   -1.669869    4.473620
 C   17.309707   -0.628225    5.030310
 H   18.683188    0.782250    5.460809
 C   18.424438    3.391422    5.776062
 C   -8.376101   10.514536   -4.800598
 C   -6.568219   12.000778   -4.207950
 C    9.606920   -4.328999   15.375248
 C   11.414801   -2.842757   15.967897
 C    6.592167   19.297519    6.020737
 C    8.680386   18.365513    6.842315
 C   -5.641686  -10.693734    4.324983
 C   -3.553466  -11.625741    5.146561
 C  -16.001878    3.003355    5.180956
 H  -15.636019    4.962996    4.811989
 H  -14.791589    9.033281    5.899684
 H   17.830290   -1.361503    5.267615
 H   18.674720    2.708782    6.355309
 C   19.040578    4.668424    5.986342
 N   -8.886237    9.194427   -4.868161
 C   -9.143134   11.625741   -5.146561
 C   -7.345921   13.095109   -4.557375
 H   -5.704962   12.138544   -3.889570
 H    8.743663   -4.466765   15.056868
 C   10.384622   -5.423330   15.724673
 C   12.181834   -3.953963   16.313860
 N   11.924938   -1.522649   16.035459
 H    5.726045   19.174385    5.706489
 C    7.099525   20.584860    6.136989
 N    9.404312   17.211788    7.184147
 C    9.167081   19.672556    6.959349
 C   -6.128381  -12.000778    4.207950
 N   -6.365611   -9.540010    3.983152
 C   -4.060825  -12.913082    5.030310
 H   -2.687344  -11.502607    5.460809
 C  -16.790220    2.697842    4.036867
 C  -15.954768    1.813095    5.940444
 C   18.993469    5.858683    5.226854
 C   19.828921    4.973936    7.130432
 C   -9.750505    8.893435   -5.776062
 H  -10.009256   11.502607   -5.460809
 C   -8.635775   12.913082   -5.030310
 H   -7.000077   13.954726   -4.473620
 H   10.038777   -6.282947   15.640918
 C   11.674475   -5.241304   16.197608
 H   13.047956   -3.830829   16.628108
 C   12.789206   -1.221657   16.943360
 H    6.578943   21.318138    5.899684
 C    8.389379   20.766887    6.609924
 H   10.030338   19.810322    7.277729
 H   -6.991638  -12.138544    3.889570
 C   -5.350679  -13.095109    4.557375
 H   -3.540242  -13.646360    5.267615
 N  -17.192644    1.441801    4.049151
 C  -17.171105    3.577204    2.890990
 N  -16.686860    0.901867    5.224174
 S  -15.190401    1.425779    7.429716
 S   18.229101    6.245999    3.737583
 N   19.725561    6.769911    5.943124
 C   20.209806    4.094574    8.276308
 N   20.231344    6.229977    7.118148
 C  -10.366646    7.616433   -5.986342
 H  -10.000787    9.576075   -6.355309
 H   -9.156358   13.646360   -5.267615
 H   12.195058   -5.974582   16.434913
 H   13.039488   -1.904296   17.522608
 C   13.405347    0.055345   17.153640
 H    8.735223   21.626504    6.693678
 H   -5.696523  -13.954726    4.473620
 H  -17.823753    3.129787    2.347366
 H  -17.541552    4.396939    3.226232
 H  -16.392677    3.769512    2.363000
 C  -16.984134   -0.463706    5.506371
 C   20.022835    8.135484    5.660927
 H   20.580252    3.274839    7.941066
 H   19.431378    3.902266    8.804298
 H   20.862454    4.541991    8.819932
 C  -11.154988    7.310921   -7.130432
 C  -10.319536    6.426174   -5.226854
 C   13.358237    1.245605   16.394152
 C   14.193689    0.360857   18.297730
 C  -16.885515   -1.386919    4.475630
 C  -17.431695   -0.849036    6.767495
 C   20.470395    8.520814    4.399804
 C   19.924216    9.058697    6.691669
 N  -11.557412    6.054880   -7.118148
 C  -11.535874    8.190283   -8.276308
 N  -11.051628    5.514946   -5.943124
 S   -9.555169    6.038858   -3.737583
 S   12.593869    1.632920   14.904881
 N   14.090329    2.156832   17.110423
 C   14.574574   -0.518505   19.443607
 N   14.596112    1.616899   18.285446
 C  -17.225640   -2.712186    4.708133
 H  -16.592911   -1.119036    3.633839
 C  -17.758654   -2.185074    6.984140
 H  -17.511368   -0.224996    7.453055
 H   20.550068    7.896774    3.714243
 C   20.797354    9.856853    4.183158
 H   19.631611    8.790815    7.533460
 C   20.264341   10.383964    6.459165
 H  -12.188521    7.742866   -8.819932
 H  -11.906320    9.010018   -7.941066
 H  -10.757445    8.382591   -8.804298
 C  -11.348902    4.149373   -5.660927
 C   14.387603    3.522405   16.828225
 H   14.945020   -1.338240   19.108364
 H   13.796146   -0.710813   19.971596
 H   15.227222   -0.071087   19.987231
 H  -17.165049   -3.332983    4.017994
 C  -17.654078   -3.115049    5.961439
 H  -18.050619   -2.457210    7.824926
 H   21.089319   10.128988    3.342373
 C   20.692778   10.786827    5.205860
 H   20.203749   11.004762    7.149304
 C  -11.250283    3.226160   -6.691669
 C  -11.796463    3.764042   -4.399804
 C   14.835163    3.907736   15.567102
 C   14.288984    4.445618   17.858967
 H  -17.871018   -4.005680    6.116329
 H   20.909719   11.677458    5.050969
 C  -11.590408    1.900892   -6.459165
 H  -10.957679    3.494042   -7.533460
 C  -12.123422    2.428004   -4.183158
 H  -11.876136    4.388083   -3.714243
 H   14.914836    3.283695   14.881542
 C   15.162122    5.243774   15.350456
 H   13.996379    4.177736   18.700758
 C   14.629109    5.770886   17.626464
 H  -11.529817    1.280095   -7.149304
 C  -12.018846    1.498030   -5.205860
 H  -12.415387    2.155869   -3.342373
 H   15.454087    5.515909   14.509671
 C   15.057546    6.173748   16.373158
 H   14.568517    6.391683   18.316603
 H  -12.235786    0.607399   -5.050969
 H   15.274487    7.064380   16.218268
