41
Coordinates from ORCA-job orca
  C   -4.76356249487145      3.40507204407713      0.07715183485346
  N   -4.01271082046578      2.17009374567382     -0.12328578016841
  H   -5.70429717408224      3.33207568138023     -0.46906806181547
  H   -4.18935161029497      4.25302717605259     -0.30466727716565
  H   -4.96979744036885      3.56310978290122      1.14084729519845
  C   -2.74285949132321      2.07964586714353      0.25200343574687
  H   -4.44868374823819      1.36313385783464     -0.53823406698474
  O   -2.16158664900643      0.92034874118565     -0.07177561030843
  C   -0.97718991482163      0.53011268912686      0.67288697996209
  C   0.34407307183194      0.96951169226318      0.05018124988138
  H   -1.02522816405877     -0.56087002972611      0.65248701178400
  H   -1.08963319726545      0.85914332123731      1.70929800881014
  O   -2.16691288635916      3.00395013981904      0.86388493929497
  N   0.86298023273261      2.28368055541754      0.49531659814892
  C   2.01644321208258      2.69999980686864     -0.35902174109971
  C   2.02767848997073      4.20923802920038     -0.59518381625602
  H   1.90343962666657      2.22630918765019     -1.34026680593225
  H   2.96619126579586      2.35052796931373      0.07745211644186
  O   0.89832019465564      4.61517066084464     -1.29220092059843
  H   2.91392016105402      4.45419831897003     -1.20469235030646
  H   2.14645280895962      4.74226077859733      0.37174445703327
  C   1.25768211904454      2.18616277401542      1.92935427368360
  C   1.00104356815819      3.38196669021259      2.82873091359705
  O   -0.39930757116609      3.65336039913804      3.07430233686791
  H   1.37023393078531      4.31129710329750      2.39494469272016
  H   1.49367546032490      3.19808463684617      3.79024942923934
  C   -1.09931070520076      2.75453135930607      3.75661542369445
  O   -0.69390547123837      1.75073554086220      4.27956796855040
  N   -2.48318455698977      3.16776765433810      3.75608016411756
  H   1.08246449032194      0.17657692486001      0.27188058084259
  H   0.21011153986908      1.00005668490929     -1.03476320828690
  H   0.77252356469650      1.32050353844300      2.38439799685819
  H   2.33978761034847      1.98888334427441      1.99617894616896
  Rh  -0.67899678622895      4.02118924543488     -0.29426930536937
  C   -1.58500715329939      3.77880872176611     -1.86556127168566
  O   -2.26330443371137      3.80869717575694     -2.80725827467232
  C   -0.75121224777068      5.47250266698679      0.82679799677890
  O   -1.03620506373244      6.39299881443824      1.47228053340126
  C   -3.50395103873487      2.52467526498831      4.26957048770509
  H   -2.63914145615682      4.01090636564481      3.20887476351749
  H   -3.07728732711271      1.63297220764908      4.77329327015133
