33
Coordinates from ORCA-job orca
  C   -5.14936314090000      1.52662946680000      0.21972226450000
  N   -3.71301348260000      1.34528679010000      0.08840276030000
  H   -5.66123818040000      0.53455568320000      0.19716875050000
  H   -5.55155346640000      2.12664265650000     -0.62224736120000
  H   -5.39981268720000      2.00569129500000      1.18845820620000
  C   -2.80929763620000      2.39471500990000      0.09948763050000
  H   -3.39641069370000      0.37128928070000      0.00034557590000
  O   -1.43738545470000      2.17185361730000     -0.02657872430000
  C   -0.98035949520000      0.85894057080000     -0.06243828920000
  C   0.50768166760000      0.87529600350000     -0.35295957580000
  H   -1.45515945320000      0.26119938990000     -0.87041231150000
  H   -1.18961410350000      0.37438693740000      0.91624398330000
  O   -3.23017433340000      3.53048586650000      0.22812959170000
  N   1.18869907540000      1.89210489450000      0.47352754390000
  C   2.41900177580000      2.33643002040000     -0.22205026700000
  C   2.58398140350000      3.82463164310000     -0.04915722970000
  H   2.30067538150000      2.27125557880000     -1.33000338560000
  H   3.30610834520000      1.71600440040000      0.02871898870000
  O   1.35775159010000      4.42314562200000     -0.43130766190000
  H   3.41588073540000      4.17461428000000     -0.69993556800000
  H   2.90084416240000      4.10075009010000      0.97073928500000
  C   1.34070671070000      1.52564705650000      1.89024062410000
  C   1.25319904770000      2.77236197710000      2.77430326350000
  O   0.13441328930000      3.54223979050000      2.42113017670000
  H   2.15739116560000      3.39777744530000      2.74572646930000
  H   1.15243108850000      2.45183788740000      3.83173760860000
  H   0.98505685540000     -0.12432776730000     -0.27622718280000
  H   0.52723218390000      1.18203791130000     -1.42468097470000
  Rh  -0.03256386700000      3.43338706860000      0.50619230760000
  H   2.25433760700000      0.92367049600000      2.07516333890000
  H   0.47231839930000      0.91872186990000      2.20995509590000
  C   -1.13806962890000      5.14053791340000      0.50259229100000
  O   -1.75862898110000      6.08195699950000      0.45322916850000
