58
Coordinates from ORCA-job orca
  Rh  20.65320591600944     -5.96814502316212    -13.35231137769917
  O   18.61612494644671     -5.76427313470396    -13.31521841808401
  O   20.57070707295971     -7.46053822985863    -14.68094020515148
  H   17.46393737057818     -1.36345415708375    -15.25699565061844
  O   23.57940551073996     -6.36368727093613    -12.99679253506804
  C   22.44338958930651     -6.20903665695219    -13.15664487305931
  C   23.73171186000015     -3.28106600847558    -17.34863582863498
  N   24.34769638124617     -3.11719639975735    -18.55201174240372
  C   19.48436290959745     -7.89654218452147    -15.19655866823763
  C   18.18050463724550     -7.45724022514018    -14.93057584182323
  C   17.81229379165637     -6.45389183493368    -14.02475825616132
  H   15.70112488446523     -6.74615790202109    -14.44987995510047
  H   16.18858790245972     -5.06841208789480    -14.09316084077720
  C   16.35420960662962     -6.12112370091946    -13.83838265830824
  C   19.70011643943832     -9.00844657211991    -16.19193176780549
  H   20.37742449684949     -8.66416697004959    -16.98032894018950
  H   20.18931270761642     -9.85140749984919    -15.69277516029558
  H   18.76497695801991     -9.34786421625378    -16.64058105832928
  H   16.08798780092142     -6.24080589185239    -12.78292014008034
  N   20.22229027616619     -3.41420992269837    -14.80253750938058
  C   18.81110477665613     -3.01229879936408    -14.86094492823757
  C   20.89605047059881     -3.31729476681142    -16.10020211514347
  C   21.00350729149988     -2.74397075436102    -13.76292759672899
  C   20.49330668197557     -2.93172892152246    -12.35348232076392
  O   20.59664778562405     -4.33319266999277    -11.94474299043606
  H   19.45126687603558     -2.62240459700021    -12.22988055765612
  H   21.10476096840545     -2.34126499388634    -11.66529248363536
  H   22.03764873868898     -3.10388361519493    -13.82029010451842
  H   21.05700432302386     -1.64682331932693    -13.91695455683321
  H   21.37143503428302     -2.33177885313665    -16.25555354892914
  H   20.15282795025884     -3.44931582847513    -16.89584995501876
  C   21.95977972418037     -4.40200762954926    -16.24790585441960
  H   18.90816016032599     -0.87917988359796    -14.36619105694049
  O   22.71813136163891     -4.18924605388551    -17.45968285754051
  H   18.33949305716625     -3.63862675174190    -15.62964793497678
  H   18.33231570721879     -3.29990370399826    -13.91799245276430
  C   18.54145002395095     -1.53470583504928    -15.16288129603018
  O   19.92365202813174     -3.63883277717442     -9.87512862024931
  H   27.73312894903360     -2.62755156673536    -18.28267002954302
  H   26.92514320299467     -4.11143378358275    -18.82206953872893
  H   26.69745511424918     -3.52866489252936    -17.15839061744134
  H   20.47938040309013     -6.50351203357605    -11.07760474584306
  H   19.01364932199401     -1.22322869302489    -16.10072972406538
  C   25.60837982040626     -2.38850719164511    -18.64012966859472
  C   26.81339193546921     -3.21654302971568    -18.20047901408486
  H   20.43712737404950     -7.27537530892508     -8.76940334726902
  N   20.32959469060808     -5.85979899582453    -10.29470622709964
  C   20.23282598381151     -4.55714062128410    -10.60193121294636
  H   24.12603549032536     -3.79302072851583    -19.26664724601091
  H   25.51459890933996     -1.49701359208597    -18.01233461571154
  H   25.72560874027729     -2.05245764702186    -19.67721686930660
  H   20.14644604691377     -5.60345467500886     -8.23165122254164
  H   18.82326485717461     -6.53992952567485     -8.96068232994409
  H   17.38049359862692     -7.95497289060330    -15.46584693930598
  C   19.90378601064288     -6.34785037791680     -8.99362602487109
  H   22.63986653452198     -4.41961183646313    -15.39275295148132
  H   21.50138827548446     -5.38817394453058    -16.35382966446678
  O   24.02309972299802     -2.69125702208795    -16.32389735264955
