9
Coordinates from ORCA-job orca
  Rh  -3.57210277099834      0.31549261688354      0.04327635480957
  O   -0.61996803942959      1.19950153745168      0.20661070811194
  C   -1.67994001418361      0.82184232545004      0.13684189595601
  O   -3.41111888435807     -0.16089220355407     -2.97420346019754
  C   -5.52530696134660      0.16314805349751      0.00898122009970
  C   -3.50231875290348     -0.45528308629252      1.83110611265181
  C   -3.49033541971138      0.17138748486706     -1.89751334436747
  O   -3.42610950654226     -1.12109219475983      2.74040880481822
  O   -6.65275165049096      0.16599546645394      0.00298870817708
