45
Coordinates from ORCA-job orca
  Rh  -0.78627566255540      0.62165947505803     -0.20055595219903
  O   -2.32846937056716      2.11128241966435     -0.60325987497490
  O   0.25187363866192      2.12876304029917      0.43764103708364
  O   -2.13418138820751     -0.67459856266502     -0.73594117302256
  C   -2.91196739491582     -1.17744332464591      0.32025758037255
  O   0.68879565897810     -0.58122489800851     -0.18140019119978
  C   0.91074986112080     -1.37937217582763      0.94821631193622
  N   -0.68645409398859      2.09287098821145     -2.29811787716440
  C   -1.93300486286557      2.67690804399988     -1.91505470389673
  H   -2.71506625673886      2.38128061077057     -2.61312066192988
  H   -1.89434211621282      3.77067958575891     -1.80271503463179
  C   0.52202819357116      2.83310216588117     -1.90543556153447
  C   0.50689521537700      3.19936239303911     -0.42392053892448
  H   0.65397457655628      3.75225241748205     -2.50691282663671
  H   1.37614893770757      2.17486158891016     -2.09538067746875
  H   -0.22350114965263      4.02144296974931     -0.25944046497293
  H   1.49019133888958      3.63838066004187     -0.18651657210073
  C   -0.65531552724099      1.50003559787841     -3.64440883552669
  C   -1.24529263237462      0.09339325629797     -3.69445904250468
  H   0.39127237297456      1.44688935479134     -3.96414436514807
  H   -1.17853965804665      2.14770588717365     -4.36658781124988
  O   -2.60763236464514      0.06636457867020     -3.31384185480322
  H   -0.64637699208985     -0.56395380877784     -3.04886346768820
  H   -1.15799285434915     -0.26764775989825     -4.73017057128900
  H   -2.63159962983486     -0.26193943228335     -2.38891325052449
  C   0.21218754426837     -0.86310945589407      2.20558920212984
  H   1.99225544259878     -1.41413259907000      1.15880936346861
  H   0.60385820667221     -2.42038834709248      0.74015466988837
  C   -2.02324167516454     -1.60806064351482      1.47798660179201
  H   -3.49269394064709     -2.04387224096556     -0.03279811945880
  H   -3.64128558563506     -0.41968793230777      0.66646190072532
  N   -1.17582182909596     -0.46837841577201      1.90686428599489
  H   -1.37884371934533     -2.41831677086139      1.12735087155475
  H   -2.61576472530860     -1.99660170595186      2.32169680860235
  H   0.73749086181869      0.02674330090460      2.56474398371365
  H   0.24854763447623     -1.63070271656845      2.99999347371720
  C   -1.80499555873913      0.26271506587732      3.01388927009736
  C   -1.34281998613685      1.70697459411937      3.18292226533514
  H   -1.64592712298797     -0.26875417685549      3.97049407699771
  H   -2.88819076204672      0.27209249847779      2.82902151209610
  O   -1.86865618927927      2.25869993797511      4.38547013759676
  H   -1.62892059959920      2.29841631158168      2.30177989764595
  H   -0.25684603417621      1.78230980342213      3.26383839874237
  H   -2.82986275231219      2.26208646135197      4.32074109191857
  H   -2.27263062291131      2.80124274057264      0.07082577844079
