58
Coordinates from ORCA-job orca
  Rh  20.84753776422832     -4.70528968569484    -14.53709909511325
  O   19.03369649699027     -5.07791978910970    -15.45921279318848
  O   21.43902826635114     -6.61515483810417    -14.92882235808387
  H   16.97397229533345     -1.97150061817799    -12.68434888816616
  C   22.53127225967923     -4.35440012486183    -13.98956572105059
  O   23.65297812109580     -4.19249901145046    -13.73492409802608
  C   22.32621745542716     -3.62515879472146    -17.51667266895589
  N   22.25075802909955     -4.90824941524523    -17.95633035822273
  C   20.81933825265054     -7.44010547050658    -15.67782101266254
  C   19.60334345711969     -7.21530243360278    -16.34338549589419
  C   18.78012557682203     -6.09245224571071    -16.18914829806289
  H   17.29127944780268     -6.91472665456653    -17.54351448633123
  H   17.42595610513564     -5.13610870499761    -17.53282449946972
  C   17.45994277502767     -6.03929957305518    -16.91409595816868
  C   21.50499746797247     -8.77502363396924    -15.83069568511957
  H   21.62853947764271     -9.23071610695052    -14.84261593230592
  H   20.94629111829232     -9.45760381091794    -16.47348735034544
  H   22.50952244345017     -8.62874520357736    -16.24261064121096
  H   16.64920908408109     -5.96129393755497    -16.18165798773240
  N   20.05879089031577     -2.73234598204152    -14.11633002811357
  C   18.69932751335459     -2.93238046035532    -13.48610480727896
  C   19.86720696272232     -2.02246953490771    -15.42874678632998
  C   20.91794710532981     -1.87035971726103    -13.23967481567717
  C   20.98329352064274     -2.19960737210048    -11.75127967856817
  O   21.78200234365711     -3.34462941516410    -11.44786030204715
  H   19.99463944103497     -2.31301999745911    -11.29844950092376
  H   21.48776661206571     -1.35210558064825    -11.27243625626709
  H   21.93118630476673     -1.86682551375588    -13.65061647598642
  H   20.54245870849183     -0.83549516197731    -13.29565812574324
  H   19.56021439256020     -0.98524793044817    -15.22709245959030
  H   19.04459696088011     -2.52416551062689    -15.94916765352249
  C   21.06672416175831     -1.98300152744233    -16.35872863251825
  H   18.42800496164839     -1.01572053105652    -12.42746853671168
  O   21.08454096573629     -3.19396292596034    -17.12702645556966
  H   18.12761416141702     -3.53615243351455    -14.19280196171656
  H   18.85102271066504     -3.54155729370707    -12.59172130504539
  C   17.91741921164882     -1.66364183210654    -13.14629697986416
  O   19.91774906554377     -4.55898012705268    -10.89012574473147
  H   25.16996829979672     -6.57276903928521    -17.24213477379289
  H   23.69743927106669     -6.49926860243363    -16.24139443631788
  H   24.65215504290876     -5.03582842080244    -16.51882789474036
  H   22.89060979676789     -5.36235953170189    -11.45326572046100
  H   17.66574454851325     -1.06794373846896    -14.02870316125806
  C   23.48017092567369     -5.64902289556117    -18.23161469091933
  C   24.29907112947975     -5.96128670320733    -16.98105685891480
  H   22.29499496994823     -7.56202498213821    -10.69635544496529
  N   21.99359432931594     -5.52363721628200    -11.01883871667257
  C   21.11184088487195     -4.49724236239215    -11.11841982411601
  H   21.44469989067431     -5.43162861229516    -17.63981906647698
  H   24.07777026185528     -5.05824214274362    -18.93459908345610
  H   23.18640628960672     -6.57155401930666    -18.74656850743520
  H   20.67183865292087     -6.96380903774525    -10.28361087069096
  H   21.11739080314058     -7.19327813333326    -11.99286213726368
  H   19.23380267169018     -8.01452002311595    -16.97546676828986
  C   21.48929458790690     -6.89023510132888    -11.00382662349743
  H   20.95411664718536     -1.13210280811465    -17.04359595296680
  H   22.02106951262829     -1.86065048083822    -15.83703813975868
  O   23.32436359576990     -2.93061324852637    -17.49499349363271
