49
Coordinates from ORCA-job orca
  Rh  21.75015268907289     -3.74287990703249    -14.27787818216105
  O   21.09434183618659     -3.10791424636414    -16.23207328735081
  O   19.62974815598982     -4.80598447859106    -14.37910272241934
  H   17.50666454283149     -0.81444590941218    -13.83925268650777
  C   22.64175045050071     -5.13548805770164    -15.08135217598858
  O   23.18114261423412     -5.98825467261307    -15.62961835000586
  C   22.90319483738439     -3.84543650756879    -12.87520062591093
  N   19.95782027453587     -5.92665869941756    -11.42858543304000
  C   18.86192538472191     -4.91631743052760    -15.36880742409248
  C   19.07657333077466     -4.33244461723180    -16.64123136069987
  C   20.14103884102707     -3.50299274510136    -16.99139031400005
  H   19.37187259635076     -3.28120162442600    -19.01723878507061
  H   21.14965887171466     -3.26887573340174    -18.86061496257796
  C   20.20875065578785     -2.95294867147253    -18.39752391148437
  C   17.61302122375662     -5.75074859475494    -15.16935735480954
  H   17.88226378039489     -6.81329570199627    -15.21009842358175
  H   17.20684799920878     -5.55108275121599    -14.17326745826293
  H   16.85410485286496     -5.56079494174878    -15.93227957524574
  H   20.22336366618900     -1.85816380525880    -18.35917555619543
  N   20.82123903604808     -1.82361099242129    -13.51883821822332
  C   19.36412560195279     -1.85605824756664    -13.89287587859205
  C   21.49730464207981     -0.72283953189146    -14.28567860806045
  C   20.98532482504416     -1.56073346061162    -12.05640660987859
  C   20.12245431455662     -2.39320741654614    -11.12531284006407
  O   20.47421241483456     -3.77490334343958    -11.21839029878259
  H   19.05145774547033     -2.27749671248682    -11.31064035133078
  H   20.32842269068230     -2.05783866746496    -10.09969307329121
  H   22.03715714050236     -1.70661932250451    -11.79900454990890
  H   20.74858371325818     -0.50378427742510    -11.85030950346379
  H   21.01376024413060      0.22934883230726    -14.02074138814928
  H   21.30094196635291     -0.92356158525590    -15.34362469612876
  C   22.99581960064701     -0.59334146675417    -14.06075710858219
  H   18.55440321162694     -0.34761498867699    -12.50582964816766
  O   23.66522274564077     -3.91418328684167    -12.00661687114255
  H   19.32661887514054     -2.04873081576525    -14.96772110350022
  H   18.92307378541498     -2.72925297829857    -13.40632632503150
  C   18.54664043644428     -0.60638106957903    -13.56889254710950
  O   18.26794930765407     -4.36736325786200    -11.42288773524010
  C   19.44384089719765     -4.67295611888420    -11.38308440735915
  H   18.11490431097839     -6.88507180259321    -11.52305012398919
  H   19.11933660554788     -7.10588095406340    -12.97463861432802
  H   20.94841609520853     -5.97307902315954    -11.61694331343027
  H   18.86127681393511      0.27105933687973    -14.14027284437679
  H   18.34319047810563     -4.54240338375648    -17.41192966499198
  C   19.13560936578008     -7.03773419147252    -11.87963734165552
  H   19.52243037923787     -7.97047536899970    -11.45827228594258
  H   23.51348961359491     -1.52179181549190    -14.31834936514877
  H   23.37111638805496      0.20143302681629    -14.71350537491857
  H   23.25067515135893     -0.31736302035081    -13.03332671981163
