70
Coordinates from ORCA-job orca
  Rh  1.33466694957389      0.39902373348767     -1.63997458081769
  N   1.99440293003782      0.36234719585650     -4.00562648811522
  C   2.08513333287327     -1.07495541091404     -4.37004041558432
  C   3.32364590799300      1.06058065506322     -4.10933195738050
  N   0.80038557164507      0.37286388998464      0.54329600187248
  C   2.00461634935671     -0.06067742039723      1.36138890650268
  C   -0.21630845164988     -0.73163975843729      0.83064401646089
  C   -1.70767941726515     -0.41019791496900      0.67065367746873
  H   -0.06215409282087     -1.03442052595476      1.87445480978833
  H   0.02963997258794     -1.58306430981099      0.19505609223491
  C   3.26846995340635      0.77856941326829      1.42829306182210
  H   2.24924028414937     -1.06781434006316      1.01462010461966
  H   1.66335753928119     -0.15383649868499      2.39993803045016
  O   3.11267077765875      1.74147707186165      2.45670167394425
  H   4.08467078332441      0.07936086301920      1.66612105585958
  H   3.52121750721324      1.24655408395940      0.46603765250455
  H   -2.06078809257845      0.25349405631585      1.46819738777067
  O   -2.42031999997134     -1.63987414845324      0.69098979079988
  H   -1.92434773639018      0.06671323902235     -0.28869244482118
  C   0.20360651199373      1.65226741244174      1.06082293281330
  C   0.86985863342796      2.98726506629584      0.76268372491621
  H   0.14328139387380      1.54852290244211      2.15374377696365
  H   -0.80670686722302      1.72970793710000      0.66624819787905
  H   1.94611947363293      2.97506552568017      0.95960134488222
  O   0.20354802675696      3.87552044238162      1.65014972432325
  H   0.67631581088841      3.26649354124327     -0.28142128446262
  H   1.32789547905123     -1.60447517867113     -3.78635647618985
  H   3.06211113566484     -1.44481018782645     -4.04214566965749
  C   1.90677661280053     -1.46618934912594     -5.84568600373789
  H   0.87371862689270     -1.27670591124521     -6.17135603518679
  O   2.25008402103061     -2.83237116059817     -5.98176364751067
  H   2.57461428232124     -0.90958020765287     -6.50601211447198
  H   3.13167673802136      2.13727015021933     -4.13269971207096
  C   4.28321696419715      0.69985971960773     -5.23718952088108
  H   3.88830975726236      0.84075123431551     -3.19846270688879
  O   3.80546763731265      1.16047412264387     -6.48631960297079
  H   5.22799181496038      1.19852188854683     -4.96809456810569
  H   4.48313658060983     -0.38166717893418     -5.25133842942330
  C   0.87521154209194      1.10831698948972     -4.64979765022599
  H   -0.01341906938602      0.47609209675487     -4.55227109210846
  C   0.97167519074334      1.62131241963547     -6.09851133881960
  H   0.69356502633452      1.99869947963487     -4.04172087058677
  H   1.13188939290441      0.82774903491744     -6.83352829293547
  H   1.78377452024820      2.33928464642013     -6.21067479532658
  O   -0.23221842633214      2.33510680249649     -6.34382405653870
  O   -0.27283499007911      1.50357969792507     -1.83921404991435
  C   -1.38188209232761      1.13992104784241     -2.51094283366706
  O   0.34658970256747     -1.21529394630246     -2.05110697441490
  C   -1.76136907466329     -0.12429904310103     -2.75974174314314
  C   -1.04433467813115     -1.36682382488061     -2.34345632768025
  H   -1.52597925869093     -1.77583598008676     -1.43908219695027
  C   -1.17198740445519     -2.45494256165908     -3.41391184930250
  C   -2.16695814685012      2.33242501025667     -2.96249307726124
  H   -2.69060189636060     -0.26950577202242     -3.30217074073871
  H   -0.81801923729607     -2.09408961677829     -4.38579902348673
  H   -2.22198241534080     -2.74157868867669     -3.52184213389599
  H   -0.60336043083935     -3.34203007629561     -3.12211453317003
  H   -2.35074099792656      3.00216128691869     -2.11589143433764
  H   -3.12517847968305      2.03480234066229     -3.39053643572127
  H   -1.60487498513471      2.90160628221600     -3.71197933276245
  H   -0.93469523956497      1.70863844828338     -6.54957894199912
  H   1.54691267221234     -3.37523883518382     -5.60722918356724
  H   0.45859205989357      4.77834443684897      1.43465617367264
  H   -2.58848267938443     -1.89679740377604      1.60386528508676
  H   4.48554782024296      1.01441129319448     -7.15354521253778
  H   3.96360994680349      2.15651468757866      2.63602179466978
  C   2.82833569369611     -0.66424138478751     -1.39450895372054
  O   3.74803854477900     -1.32866133527038     -1.27544952688377
  C   2.33317844779045      1.95621120194298     -1.52833300203761
  O   2.95616917783801      2.91262632648392     -1.58267140199424
