66
Coordinates from ORCA-job orca
  Rh  0.76554172518455      0.59537786612520     -2.07145275215935
  N   1.25775028250904      0.68086049962229     -4.14227608500926
  C   2.60388610648044      0.05433371815972     -4.30336297190584
  C   1.27499087619395      2.14535372260938     -4.45696529616663
  N   0.46461012252375      0.52952988285111      0.01407229107024
  C   0.96875754182064     -0.82449731866423      0.44229500703417
  C   -0.97828113772083      0.59055369481016      0.47221046142250
  C   -1.63523712246437      1.97483893853901      0.46682774180328
  H   -1.01934494246734      0.17854484754100      1.49295975372003
  H   -1.56618326384091     -0.04910603609940     -0.18625781962815
  C   2.21355525465003     -1.29992576064309     -0.31981106322881
  H   0.15872119382942     -1.53057333226630      0.25909252223910
  H   1.16081111137768     -0.80230892532033      1.52348556826096
  O   2.51233698821606     -0.42198007311989     -1.44713653083911
  H   2.03255691522461     -2.28460651612724     -0.74789072678251
  H   3.10240755155568     -1.34432991790268      0.31496624591938
  H   -1.27293675749543      2.60604636359884      1.28902263749348
  O   -3.04190425628536      1.81459379663521      0.53222349399928
  H   -1.42863575432030      2.48521328221282     -0.47795641192985
  C   1.18159662084245      1.61555552600200      0.77063747643495
  C   2.70380393336083      1.70807915743795      0.67629455019979
  H   0.91755015990531      1.49789340013913      1.83415078414631
  H   0.78739584508415      2.57863818020069      0.44135357604958
  H   3.19159714111206      0.77850595823524      1.00777697858760
  O   3.14529637412595      2.81445728040260      1.43618912485713
  H   3.00618133856962      1.93068224997405     -0.35178312440082
  H   2.53837677420823     -0.95295690455889     -3.88713495181780
  H   3.32199107822030      0.61284933419239     -3.69490456841846
  C   3.21144120396653     -0.03217097494275     -5.70322671304683
  H   2.71495609605878     -0.81287334901361     -6.29624152376871
  O   4.57004662964222     -0.36031869542874     -5.45589628415532
  H   3.12758676172562      0.91954693438276     -6.25025424994351
  H   1.76274233353287      2.34581218555443     -5.41805463602056
  C   1.95734729117985      2.94374343864778     -3.37083650166688
  H   0.23199186037889      2.46570019152691     -4.53164010148176
  O   1.33820855389499      2.65646761836615     -2.08426911219036
  H   1.87872278831258      4.01581715944924     -3.57718219275123
  H   3.01502846871673      2.69943839451112     -3.25126183772293
  C   0.23311674960347     -0.02600535556058     -4.99287449569226
  H   0.47038017568522     -1.09239314543688     -4.93862785752163
  C   0.09683528013152      0.40802102276340     -6.45840509924147
  H   -0.74435567406568      0.10482321652250     -4.52701044985976
  H   1.03560556405667      0.32935306337414     -7.02264779188230
  H   -0.24130051220791      1.44585068619307     -6.53098635975191
  O   -0.93191848165270     -0.36026492498401     -7.05628737514176
  O   -0.89558180907470      1.48004005144786     -2.55196533489675
  C   -2.05166720733297      0.78957923992637     -2.63809028225392
  O   0.18299596634118     -1.23363113048421     -2.31094672517206
  C   -2.19764315392099     -0.54041250091176     -2.50675551963355
  C   -1.17472899941755     -1.59849823664067     -2.18241260380975
  H   -1.37248341218118     -1.93763113615247     -1.13547706098185
  C   -1.39010659386763     -2.83595014750562     -3.05843185869135
  C   -3.20195614949348      1.70088277479874     -2.94477470214894
  H   -3.21175888309605     -0.91683937250650     -2.60082440074765
  H   -1.31369149762222     -2.57114756416240     -4.11670814897884
  H   -2.38292712438803     -3.25897852571593     -2.88078011959190
  H   -0.64093841916433     -3.59700806275934     -2.82370857860682
  H   -3.33418459748144      2.43504710065996     -2.14287362923852
  H   -4.12926546132235      1.13914568776314     -3.05354106171470
  H   -3.01335179694996      2.25172239298354     -3.87333287903403
  H   -0.62104419016187     -1.26447503732966     -7.17716174260111
  H   4.99503245489211     -0.58850707381857     -6.28931055367564
  H   3.12108090109623      2.59220946039356      2.37374162381748
  H   -3.30308282077991      1.66028483143688      1.44641201640112
  H   0.43223297241217      3.02142969805519     -2.11684217851907
  H   3.27638377735290      0.12182427141011     -1.22173531423344
