43
Coordinates from ORCA-job orca
  C   -0.96619197939502     -0.29032625352720      0.23896478923504
  C   -1.20409417905507      1.04334239749337      0.56575010680192
  C   -0.29779955936242      2.09713317905325      0.40784983843338
  O   0.93505261305120      1.98629276539807      0.07353962523543
  O   0.15573739930583     -0.77312607522508     -0.16852000957459
  C   -0.75546061338229      3.50927612861603      0.58799007112889
  C   -2.06736032517463     -1.29774064623759      0.30619449579071
  H   -2.20444026487404      1.30056604504514      0.88735578577973
  H   -3.00106528597837     -0.86155810222460      0.65773259317440
  H   -1.76956570643404     -2.11659524802348      0.96811395343837
  H   -2.22152470353834     -1.73432584142035     -0.68614870115227
  H   -1.72858169589584      3.56400891573128      1.07467225118420
  H   -0.83116391952481      3.97449401775755     -0.40109105920481
  H   -0.01630712955374      4.07382162794243      1.16094698340440
  Rh  1.89440534099216      0.21317378357126     -0.16640715702288
  C   1.97454604784095     -0.10405383161780      1.66691027934424
  C   3.56078597145170      0.99013417954303     -0.15237702350148
  O   2.04055179936759     -0.33512858991169      2.77211732208233
  O   4.60372231048829      1.43810111714700     -0.09880605228754
  N   1.81618718791921      0.33866153004055     -2.33066986038397
  C   0.37264706621552      0.28250026407820     -2.79486648696597
  C   2.54869384491772     -0.92808454092424     -2.76981048345497
  C   0.07811888498929      0.59036063229854     -4.25384445871694
  H   -0.19635125092347      1.00198170718527     -2.20188867774009
  H   0.01451998581955     -0.72305605111328     -2.56662400376548
  H   0.34598119591011      1.62228777707454     -4.50512830977264
  H   -1.01735122020840      0.50873836473150     -4.33909087578231
  O   0.73196070718667     -0.34832435366008     -5.09836685489766
  C   2.30878584863410     -2.01743539683181     -1.75443224877884
  H   3.61769699947392     -0.69558082521608     -2.78152662645117
  H   2.22697486946679     -1.19245361348288     -3.77872198830765
  O   2.69978728343888     -1.55227174181491     -0.48252157247589
  H   2.93745711737736     -2.88448793581374     -1.99797427536751
  H   1.26230467562796     -2.35993307969080     -1.76719221102478
  H   0.46592339605154     -0.18693289068078     -6.01002245253533
  C   2.54565338996024      1.50438410122162     -2.95036025680609
  C   2.19184011270496      2.91016580398937     -2.50510355251518
  H   2.44217561996532      1.40945939552223     -4.03712343358120
  H   3.60818746218771      1.36857614443106     -2.72764097963934
  O   0.83618025799041      3.22293355572105     -2.80224400867559
  H   2.87955979939627      3.56808866093149     -3.05720431639035
  H   2.39285898759697      3.04425484447305     -1.43405170030582
  H   0.73256765797215      4.17997007841942     -2.77237445795460
