49
Coordinates from ORCA-job orca
  Rh  21.66892199721098     -3.78478903435997    -14.23584170360015
  O   21.35787429128143     -2.88331634620877    -16.36624991534462
  O   19.85827754029833     -4.66058951113443    -14.61132740969233
  H   17.30283327077681     -1.06200978480874    -13.44513436181429
  C   22.34571939610503     -5.40498479995918    -14.89681860581979
  O   22.53080007812685     -6.42406076264860    -15.34857035071858
  C   23.38892348068167     -3.27121124749444    -13.69290985177237
  N   19.84515073132767     -6.12358239306727    -11.53318704502626
  C   19.21816765535682     -4.82954415363656    -15.70004969067377
  C   19.49613809491107     -4.24908713355592    -16.93137652586721
  C   20.53307433243783     -3.33492223026725    -17.19240692864022
  H   19.71120588028506     -2.35961790739904    -18.91340278905765
  H   20.83012167943343     -3.67022768765666    -19.28013677260807
  C   20.64336940000814     -2.83214601740431    -18.61255905156809
  C   18.01492760851058     -5.73429754473752    -15.59177928940936
  H   18.31522578641858     -6.68224580561002    -15.14955004076201
  H   17.28067038646016     -5.27742405611634    -14.92980066215459
  H   17.56031857268470     -5.91317311287620    -16.55930468220793
  H   21.45881097189238     -2.11865989750898    -18.69070383803066
  N   20.64198995495021     -1.94838720016994    -13.45264656657973
  C   19.18779570894836     -2.01646370841542    -13.75933049386360
  C   21.16061997537226     -0.71537940164221    -14.10195567657358
  C   20.88444174800788     -1.86258366828678    -11.98592099950936
  C   19.92431463692759     -2.60921778297825    -11.03924197129720
  O   19.47454568302119     -3.91995250314256    -11.36740804677544
  H   18.98676969254053     -2.06081126300558    -10.92446180478582
  H   20.42382767773313     -2.64697454396284    -10.06335908760703
  H   21.90112669728044     -2.20950380470051    -11.78675100906625
  H   20.82238265407797     -0.81264091829399    -11.66940135430296
  H   20.69701600083214      0.14948430443581    -13.61483321722912
  H   20.83765518083410     -0.74175364890420    -15.14507375594322
  C   22.66801399042192     -0.50904159299129    -14.08538590010071
  H   18.54819781753164     -0.44085362894223    -12.37499002182668
  O   24.44979638570911     -3.18036637102632    -13.30943262988538
  H   19.08824158306144     -2.17219253693069    -14.83749322089706
  H   18.77728424677900     -2.89414335950770    -13.25757893198358
  C   18.35334368030107     -0.78887558685453    -13.38507820401787
  O   21.53857025101139     -4.68948798455931    -11.90630051640264
  C   20.36297641992489     -4.89762669628949    -11.61971458593513
  H   18.02355614267921     -5.61326537865772    -10.68160702299423
  H   17.90323272523790     -6.67958038853948    -12.09383007844553
  H   20.46273536999198     -6.87910432463016    -11.79339151065327
  H   18.51476435286956      0.03556362573476    -14.07391951371120
  H   18.86356958102484     -4.51421579280404    -17.76176290719962
  C   18.48129156474076     -6.45482885888169    -11.19506456888069
  H   18.47172145256064     -7.32525185872617    -10.54126517174738
  H   23.16443938404177     -1.21203894877000    -14.75298800752289
  H   22.87454815498051      0.49159634191119    -14.45983440892733
  H   23.08699413239896     -0.57926609402110    -13.08531030056319
