49
Coordinates from ORCA-job orca
  Rh  21.15725587984283     -4.13654764136945    -14.15442286227019
  O   21.35055954091402     -3.28292040899953    -16.16443271663880
  O   19.08834473335252     -4.55973194335564    -14.65240890175582
  H   17.11400897320175     -0.63137438228160    -13.53910090070539
  C   21.61212344667423     -6.00273606335432    -14.62753363225547
  O   22.35146537658208     -6.88630906187685    -14.50371021618254
  C   22.88052537613031     -3.88285596151993    -13.44694521268315
  N   20.95039360266703     -5.98318183027969    -11.14511390456853
  C   18.62588360949648     -4.60151315309395    -15.83316944368523
  C   19.25798018571052     -4.12538109329271    -16.99505493277046
  C   20.50858869807100     -3.48917242042693    -17.09282933153585
  H   20.16930434955689     -3.08583202992428    -19.21027073440136
  H   21.84372143199473     -3.50571582619894    -18.75968223263790
  C   20.94111674891720     -2.96968661252072    -18.44705457994231
  C   17.24751836103203     -5.20819925305542    -15.95939060025298
  H   17.28709921740037     -6.24956384228226    -15.62142354180406
  H   16.55829699709080     -4.68080112851526    -15.29129044626540
  H   16.86075754480954     -5.17596521340751    -16.97970941337295
  H   21.21126356733969     -1.91246927034147    -18.35839868242634
  N   20.36743270873863     -1.85641195815234    -13.46962766409450
  C   18.90731523004185     -1.79425244450533    -13.74619220113054
  C   21.05497298917733     -0.78786077480414    -14.24546433792180
  C   20.68078496569218     -1.71609342962544    -12.02892696800687
  C   19.86285238144239     -2.59099655460429    -11.09518190820097
  O   19.93488478504298     -3.99660081653791    -11.40611980249117
  H   18.79658440859396     -2.35423488777841    -11.13737210504667
  H   20.22636277643763     -2.42548723677174    -10.07568030949458
  H   21.73863575015101     -1.95073368500703    -11.88073968268068
  H   20.52722667462932     -0.67269204475269    -11.69565794858785
  H   20.75033207615886      0.19522926939811    -13.84754578844719
  H   20.68189748739104     -0.85794269222855    -15.27352454360353
  C   22.57412111921139     -0.85091263524107    -14.27580817230126
  H   18.27749750335770     -0.30368450850122    -12.25493853314290
  O   23.99079302444406     -3.88251468674515    -13.14030378151579
  H   18.79300106907920     -1.94049082793669    -14.82639167347532
  H   18.44078251188879     -2.66494569411002    -13.27801168250030
  C   18.18129797782714     -0.51361632691542    -13.32524653608218
  O   21.87441760982881     -4.11902474888464    -10.19957489141345
  C   21.00177347377652     -4.66128438373635    -10.85143141115893
  H   18.99681567998297     -6.82574901462319    -11.05274596921182
  H   19.45198235772166     -6.12106879005818    -12.62370050794165
  H   21.69352798518049     -6.52117013516516    -10.73114410031825
  H   18.52898077040449      0.36550886706858    -13.87477943214209
  H   18.70138739548995     -4.22695498880704    -17.91946658380206
  C   19.82422009466744     -6.67763950637728    -11.75960587365370
  H   20.17125719667416     -7.65412010689704    -12.10743164130317
  H   22.92272660704860     -1.73087652816829    -14.81859026330245
  H   22.94171310556577      0.03524094609096    -14.80426245268341
  H   23.02450864355816     -0.84171553951145    -13.27903194818593
