60
Coordinates from ORCA-job orca
  Rh  -1.65050106474777     -0.46574853882024     -1.81896809752760
  C   -2.03755436767803      0.57068477154179     -3.24967007284723
  O   -2.24525125271615      1.25541913028735     -4.16441230350079
  H   -1.03557807362162      0.30029328461519      2.49800209385946
  O   -1.80590179450169      1.15803352232475     -0.61319117482651
  O   -1.10986534284703     -1.61669407088576     -0.20425610037821
  H   -1.57758206080324      2.53198800493355      2.34383976391826
  H   0.36948957794682     -2.72936628055700      1.64937003092317
  C   -1.58152625370645      1.18589619668680      0.63880255596930
  C   -1.18687002887791      0.10322316122909      1.44321109309710
  C   -0.97786230373444     -1.20192645824009      1.00084052152696
  H   -1.32692337278608     -3.05072965682915      2.01114046294263
  H   -0.42598716574778     -1.86959940821379      2.99431410494159
  C   -0.56354137956674     -2.26489718041836      1.98631539470745
  C   -1.77450863333033      2.54164021244927      1.27029924647463
  H   -1.10950247280456      3.26406252127854      0.78568881695643
  H   -2.80066525876090      2.87970752281386      1.09258263745973
  H   -2.60626651055741     -3.40080624378078     -4.44652350859158
  H   -2.62383662919016     -1.65164534490609     -4.73646555920407
  C   -1.13175708240006     -3.45948677906791     -2.31963815634150
  H   -1.76267866776963     -4.47000834377641     -0.53772217001487
  C   -0.31265135139875     -1.97807524103568     -4.02531944538223
  C   -2.23327589134074     -4.00958993692835     -1.41809862850358
  H   -0.85283698617737     -4.23942141597750     -3.04695007611739
  H   -0.25782145716281     -3.23059374771645     -1.70744498564150
  H   -2.86767979251480     -3.19967150292468     -1.04707286044468
  O   -3.07720147071635     -4.94625891384732     -2.08663254695001
  H   0.86790114396865     -1.15656807707247     -2.40794971023690
  C   1.03216311219164     -1.74536772317029     -3.32808853700851
  H   -0.23203527158657     -2.83239891528718     -4.71697371202252
  H   -0.55092779132682     -1.09217698233329     -4.61963049566059
  H   1.51205150555662     -2.69336473885295     -3.06044202968234
  O   1.92997760037703     -1.08487948647454     -4.20700696615091
  C   -5.18767474575967     -0.69762241998220     -4.66675773102475
  C   -2.57633499799663     -6.28447495720228     -2.09207508392723
  C   1.78122444390059      0.33808755139437     -4.19866995880651
  C   -4.05133579380365     -2.28147484783271     -3.28165275112883
  C   -2.68002112107225     -2.41843621884021     -3.95718298608736
  H   -4.02045772532548     -1.45327886178848     -2.55265507502248
  O   -5.05016779278807     -2.06288193443342     -4.27148934728944
  H   -4.33715964808608     -3.20429775579318     -2.77488441205216
  N   -1.46495240232612     -2.21577719558478     -3.08871351437749
  H   -3.05728381262489     -6.77618434482932     -2.94525121507555
  H   -1.48979352420848     -6.29156446562247     -2.27964577321868
  C   -2.90307183152561     -7.02773445835326     -0.80553305181451
  H   -3.98444400680203     -7.04069934138735     -0.64155188512290
  H   -2.54687986779059     -8.06208581077345     -0.86578929242024
  H   -2.42930459313305     -6.56172015129050      0.06437414507590
  C   2.76238423080432      0.91467098680921     -5.19524209137211
  H   0.75064465111725      0.62808200118284     -4.46010113989585
  H   1.97688564447570      0.71892309905258     -3.18227199858894
  H   2.54980205538886      0.54504207843424     -6.20284122583542
  H   2.69066191343462      2.00671790942748     -5.20384768770297
  H   3.78672635154664      0.63368069030495     -4.93314542314699
  H   -5.35155936619049     -0.07037634276407     -3.77423447093532
  H   -4.27206133411985     -0.33005589226346     -5.15710718356976
  C   -6.36162871386742     -0.60580962260189     -5.61779676669218
  H   -7.27965351701879     -0.94618454566030     -5.12978202075184
  H   -6.50112246043424      0.42937858888488     -5.94486485217376
  H   -6.18933756646277     -1.22873177743087     -6.50072844838546
