60
Coordinates from ORCA-job orca
  Rh  0.28925105936606      0.13805408615944     -2.15680393992572
  C   0.54007221666325      1.71250159327649     -3.00654074726772
  O   0.70350996046681      2.79250643446032     -3.40187712696488
  H   -0.32314632173367     -0.76123463065702      2.15039096277755
  O   0.18545862559935      1.23734088564240     -0.45133854030457
  O   0.02005675594909     -1.57024260564422     -1.04299269372800
  H   0.91926332263371      2.41237817453069      1.77277410702928
  H   0.53729040253109     -3.63032914381937      0.54190813061038
  C   0.00366767361515      0.79047657705652      0.72700221975221
  C   -0.16733572060755     -0.55281413643141      1.09848533134394
  C   -0.15651888346068     -1.63817274063445      0.22315258757327
  H   -1.18833236173725     -3.50251428489457      0.20936404151060
  H   -0.55982008113824     -3.05097447932978      1.82206877115662
  C   -0.35853604873270     -3.03400150386405      0.74946232442438
  C   -0.02562774751581      1.85940131670505      1.79027716877869
  H   -0.82157577621892      2.57523379389009      1.56038300501161
  H   -0.18557889163377      1.44759673315945      2.78834456317224
  H   0.10738691429389     -2.91033638842297     -2.83678629049101
  H   -0.16049063498767     -3.05765508476033     -4.58955796374632
  C   1.83867348522988     -1.43799863531436     -4.22158855367419
  H   2.01526998178571     -2.06503527509627     -2.14860503387653
  C   -0.22182413394590     -0.48855555439706     -5.15212581350070
  C   2.55370323647208     -2.20222408141362     -3.09445838239776
  H   1.89621837630991     -2.01062019355944     -5.16230850843398
  H   2.36416635028919     -0.49195778068031     -4.37191543434233
  H   2.58688456929531     -3.27508582955065     -3.31313736498338
  O   3.90765889914298     -1.78408788685180     -2.98238976556571
  H   1.11572902978601      1.24809546213538     -5.32638072120202
  C   0.63951297044575      0.48889049781715     -5.95806610885635
  H   -0.51657977572112     -1.28934801162535     -5.84921683042205
  H   -1.13046553948739      0.02495314863956     -4.82508094415567
  H   1.43172988324182     -0.04234332527466     -6.49598616903126
  O   -0.19023023419780      1.07934297752461     -6.95047420639642
  C   -3.24192390119210     -4.15277120550688     -3.77272734372714
  C   4.06718986102127     -0.57753675655904     -2.22223616918771
  C   -0.82510095204545      2.29482845369752     -6.52923821053995
  C   -1.81259925067201     -2.24867368234743     -3.44069934248271
  C   -0.31940594770900     -2.41478094766435     -3.70876628607808
  H   -2.36235773365035     -1.95888054265496     -4.34729120969862
  O   -2.31311093264726     -3.48045241772120     -2.92419930080398
  H   -1.96226440939104     -1.46363939709532     -2.68616299396272
  N   0.40223247099083     -1.12005657138037     -3.93444967071586
  H   5.07112958478013     -0.21674689857095     -2.47112997665530
  H   3.33743064018235      0.18385285381031     -2.54628529189766
  C   3.93707275149891     -0.79935654397395     -0.72327260885517
  H   4.63739323291029     -1.56908830755622     -0.38421999900625
  H   4.15855645708981      0.13457201878575     -0.19494254809843
  H   2.91971272480676     -1.09333794494755     -0.44367050375739
  C   0.08339858406929      3.50078766160965     -6.69770351809319
  H   -1.71415881772327      2.39283058664309     -7.16238873417658
  H   -1.16630561642464      2.21101951563441     -5.48531894877249
  H   0.39011715660584      3.60235641811686     -7.74303987556700
  H   -0.44365058298112      4.41236341900608     -6.39529833015996
  H   0.97784790337122      3.41772214197360     -6.07358762444102
  H   -3.66216156394003     -4.95305792667821     -3.15372719404629
  H   -4.06748009695772     -3.47311129396984     -4.04221874824593
  C   -2.60539132262506     -4.73886186160387     -5.02468259347867
  H   -1.78085657357141     -5.40754337323452     -4.75755365132526
  H   -3.34787307087615     -5.31200788701315     -5.59099438454289
  H   -2.21875843721871     -3.95665077777471     -5.68705898005729
