41
Coordinates from ORCA-job orca
  C   -5.14634745037882      1.90210994885395      0.91873492219468
  N   -3.77550689973379      1.66740352790558      0.46336773314680
  H   -5.69824866213241      0.96457525143195      0.83680703556804
  H   -5.63389963526494      2.66762454379355      0.30809519705034
  H   -5.14257623987513      2.21760955959334      1.96737410487197
  C   -2.90971454179914      2.69320327862514      0.40968364334440
  H   -3.56502993050632      0.80714440670916     -0.01081864693888
  O   -1.62056324298724      2.34647799807988     -0.05438082329325
  C   -1.06633647707104      1.05534991285628      0.35492970692268
  C   0.41035608442974      0.97657392037338      0.00531891212612
  H   -1.57906660372671      0.24294001506724     -0.17449850422492
  H   -1.24164654661895      0.94150079956865      1.43088985290229
  O   -3.13479635142062      3.83351466507726      0.71885260278366
  N   1.16043063589490      2.14002872217126      0.49956829202282
  C   2.43043668494631      2.41641384898538     -0.23008817994042
  C   2.63499231916497      3.92985631140368     -0.34576357077284
  H   2.33993457713907      2.01351453979640     -1.24465898153940
  H   3.28353420809773      1.92686369236465      0.26706093342080
  O   1.67006775902984      4.52473380943451     -1.15543378514153
  H   3.62135985680600      4.11869898469107     -0.80069688117247
  H   2.66867765238011      4.36624831078664      0.67656920564054
  C   1.36109311016757      2.08064317018713      1.97236831739789
  C   0.86698143608720      3.26240254639696      2.78486289666575
  O   -0.57847069621040      3.35114865532155      2.83103997562647
  H   1.17418788789878      4.21083785167739      2.34485568167825
  H   1.24522495441117      3.17252309387613      3.80825627187970
  C   -1.20670179999730      2.53042509938165      3.67183331755954
  O   -0.71769063567939      1.68906448399364      4.37468352562423
  N   -2.62296710336887      2.79137546488658      3.56974738733947
  H   0.77736958030938      0.01921855467171      0.42348088741452
  H   0.52072797599600      0.93734041923744     -1.08055373036277
  H   0.89638087310011      1.17058756268829      2.37030000912251
  H   2.43555654651306      1.98955652723965      2.18521088997695
  Rh  -0.08066757718389      3.79186770741180     -0.63739224498910
  C   -0.44159840364670      3.55641997818466     -2.41929155535187
  O   -0.71407833483865      3.57502193263430     -3.54489331241700
  C   -0.50428843940472      5.23021544655927      0.44203705018928
  O   -0.84052859863894      6.20292566249105      0.96665550907152
  C   -3.59188383327443      2.10520990043721      4.12975318815205
  H   -2.84392356255360      3.56286168044928      2.93930924859668
  H   -3.09904277915990      1.32014360940514      4.73890325415435
