41
Coordinates from ORCA-job orca
  C   -5.57257326915563      2.60185742891213     -1.35016613614676
  N   -4.17593185360303      2.24576576297962     -1.19282318112649
  H   -6.22462523056475      1.87255254573556     -0.86208243128446
  H   -5.83247763072568      2.64681274619025     -2.39745018633114
  H   -5.73449600412247      3.58612699054901     -0.90558455392272
  C   -3.59932296108581      1.30556442104763     -1.95213838387033
  H   -3.57006713739771      2.72032044002230     -0.52391679747372
  O   -2.14521594630277      1.17001334545655     -1.66612374626325
  C   -1.66602608491049      1.86867727223059     -0.68561805305801
  C   -0.20607674860086      1.58855281175768     -0.57708524529780
  O   -4.02744170178706      0.58822673500901     -2.81469408968222
  N   0.47597559720423      2.52382816413007      0.37166747799060
  C   1.94612477448009      2.19783615562273      0.36926382582478
  C   2.76011059352810      3.46775241027157      0.43861523108167
  H   2.16477544051383      1.72035636568865     -0.57162422553062
  H   2.16821559267409      1.49638161567680      1.16408511974083
  O   2.22408163503603      4.38561884151703     -0.46847303032320
  H   3.80367454231788      3.23090940840383      0.16441720166083
  H   2.78737121082198      3.86890445331496      1.45903681046219
  C   -0.12775808735822      2.32384614348881      1.72338176772873
  C   0.41376834709474      3.27111944271020      2.78429856478035
  O   -0.25499408996541      3.00929406755680      4.02882255861098
  H   0.26378381059524      4.31196792812229      2.47406152667612
  H   1.46755983140120      3.09517722641093      3.00056334854470
  C   -1.49308444608744      3.58557247284422      4.15296126252582
  O   -2.02516946634499      4.24552909883096      3.28259280340613
  N   -2.03190966253382      3.30963888915301      5.36524479940755
  H   -0.08068817321792      0.54734149676289     -0.22249449099490
  H   0.27796635094573      1.66032856593037     -1.55945129920626
  H   -1.20705974682545      2.48460534929045      1.62065413073869
  H   0.04395885218125      1.28042486224470      2.03738631958710
  Rh  0.29020434303754      4.52614610474927     -0.37683461007648
  C   -1.50804344539388      4.68151843187724     -0.19973702913297
  O   -2.63552994774657      4.90729723336289     -0.07207345007247
  C   0.31481168426494      6.19122666950651     -1.06201928950788
  O   0.32728093432571      7.24567796349965     -1.51199834190524
  C   -1.37015045594604      2.57983183728464      6.43347082632608
  H   -2.92973669291481      3.73295300140831      5.52789005567283
  H   -0.44828677957989      3.08266013383264      6.76593343274804
  H   -1.11365932726019      1.55834845019080      6.12255357396690
  H   -2.06126951249149      2.51870691202569      7.28489634782570
