79
Coordinates from ORCA-job orca
  Rh  -0.64245942049113      0.85109735680592     -0.13018399997521
  O   -2.95032210127440      2.38789755818644     -0.04345765117590
  O   1.31393103056042      2.49550082586121      0.37569827468173
  O   -3.21437274620090     -1.19038826450783     -0.62535169471720
  C   -3.18541024055950     -1.24063934027641      0.81265470619598
  O   1.37581244582550     -0.66397564627340      0.04327836023092
  C   1.24489602886360     -1.44945801550826      1.23907487265471
  N   -0.49688106916031      1.98358140884249     -1.91452700377148
  C   -1.68354990631901      2.89702943646324     -2.08213419543459
  C   -2.98994616746286      2.40132685151523     -1.49381337017036
  H   -1.83818010258420      3.09634465885953     -3.15165212963492
  H   -1.44690030454872      3.85520848996690     -1.60819666013350
  H   -3.22441856795318      1.37834831561072     -1.77975482172089
  H   -3.79653000434415      3.05754802672460     -1.84433335344418
  C   0.74152263696295      2.84090329023594     -1.88522631345545
  C   0.97308874942303      3.53295045489847     -0.56375462166319
  H   0.68878053024896      3.59233996929513     -2.68780762542945
  H   1.59716480993017      2.18736799045494     -2.07604674044026
  C   -0.32729004398366      1.10450067446833     -3.12552123122274
  C   -1.36793618993669      0.02506923158269     -3.31312277641932
  H   0.63443881785436      0.60044415142780     -2.99444281811054
  H   -0.26315189699321      1.73986874129453     -4.02560609239299
  O   -2.63825394452617      0.46984719369166     -3.80816204650281
  H   -1.56327085171326     -0.44660299451987     -2.34428535800458
  H   -0.94485041611487     -0.74170715893106     -3.97639959426722
  H   -2.56313141013429      0.62434745356144     -4.75615724180170
  C   0.35840881569844     -0.67896454354517      2.19625411860364
  H   2.21630906247219     -1.55620596237586      1.73789194732825
  H   0.85171154653184     -2.44252393553475      0.98550005907364
  C   -1.79731382254761     -1.47433277414709      1.39453939800314
  H   -3.83295847327186     -2.05434226081181      1.14925692443871
  H   -3.61979901877639     -0.29233467285314      1.13036338212734
  N   -0.96058426666372     -0.24690250756392      1.63319492033381
  H   -1.26180462956269     -2.14726248928668      0.72235246889644
  H   -1.91308906467017     -1.99834829121253      2.35675888679337
  H   0.90833653465180      0.21828181310819      2.48564832188892
  H   0.19814174566232     -1.29846414915798      3.09390886266625
  C   -1.65178254384469      0.57942540124613      2.68333137102053
  C   -0.87509531377949      1.81253044496787      3.14547366320715
  H   -1.89404985541158     -0.06170283012778      3.54598176960586
  H   -2.59037491347937      0.93877502077252      2.25855905848182
  O   -1.75244830053412      2.73218715826898      3.77465207883879
  H   -0.39956772188142      2.26413556461128      2.26802720406607
  H   -0.09837092811598      1.54998822437156      3.87075218761506
  H   -1.98968388004829      3.39172071671779      3.10983106824985
  C   1.84105607395689      2.79812317109684      1.61380575772902
  N   1.70770739588633      4.07835162328680      2.02736461627323
  O   2.37907191495637      1.91040897606004      2.23809236728794
  H   1.02100139328258      4.66531279027944      1.58206869064436
  C   2.12253360388772      4.44217390970928      3.37919717163655
  H   3.11040975016713      4.02544606102164      3.57804504304583
  H   1.42370384216121      4.06307963248455      4.13382976288489
  H   2.17340546951396      5.53009411270953      3.44977021656142
  H   0.08813833271160      4.08054984819414     -0.21412741784313
  H   1.81731803103817      4.22471041128683     -0.67128526933606
  C   2.37252762960956     -0.87075313099742     -0.87646254858385
  N   3.22707170500664     -1.88723909794972     -0.64524365247683
  C   4.30015506061615     -2.16587949375230     -1.59405856760555
  H   3.07714265457111     -2.53013398943672      0.11085921930794
  O   2.42939151523240     -0.12945049077257     -1.83601558589543
  H   4.87068873307322     -1.25605859183948     -1.79114629962752
  H   3.90662571132168     -2.54137585465597     -2.54407640065693
  H   4.96323450699752     -2.91503528482042     -1.15918656224904
  C   -3.26498003306673     -2.43633584549833     -1.22277252152850
  N   -3.52705802192237     -2.30975662625669     -2.53878869776118
  O   -3.08325131884868     -3.46992937626912     -0.61297510325437
  H   -3.68907713604120     -1.38568415403159     -2.91105427660141
  C   -3.62071165838216     -3.46090037029000     -3.41877877158918
  H   -3.26504180865213     -4.34002133613796     -2.88071895422450
  H   -3.00158610133711     -3.31400568333078     -4.30965615855860
  H   -4.65429036683877     -3.64029404433324     -3.73484558174924
  C   -2.99505900696537      3.60975757793731      0.58790078902496
  N   -4.21081361782621      4.18584094457092      0.62559137625700
  O   -1.99799279910397      4.08236348220173      1.11453463252865
  C   -5.47960026869261      3.60485470084249      0.20492461377545
  H   -4.23044182712865      5.07660955151152      1.09912864512300
  H   -5.36840436750267      2.52824843116204      0.07571336017297
  H   -5.83607964051920      4.04446997003712     -0.73332451320600
  H   -6.23266270895978      3.78256340350178      0.97694576368070
