66
Coordinates from ORCA-job orca
  Rh  0.64097966781735      0.46899413743355     -2.03928155222519
  N   1.37494789572692      0.58696337546753     -4.56377111849825
  C   2.43717603474495     -0.41766100669091     -4.66005358478495
  C   1.83651420302255      1.97750624770851     -4.64628956143697
  N   0.65558891451969      0.45628454779361      0.64215952589571
  C   1.81002330021958     -0.42878045019864      0.90446872945526
  C   -0.58379847592897     -0.23210881595924      1.06958979546588
  C   -1.86481997009418      0.55372493842017      0.79884671647298
  H   -0.52108936422808     -0.48318292725997      2.14563386826003
  H   -0.65028524066430     -1.17074012191837      0.51233444056568
  C   2.89209802029876     -0.32450236621522     -0.14768809563959
  H   1.45556279621642     -1.46457671057942      0.90107254457590
  H   2.25058389620069     -0.24340625186613      1.89703298685440
  O   2.28895346578192     -0.70212374241815     -1.41532184114328
  H   3.69461346238066     -1.03450564164699      0.07976558852790
  H   3.31307985865379      0.68220611931345     -0.23204312523922
  H   -1.99830557792529      1.37838476973451      1.51156656560440
  O   -2.98638500118710     -0.31905173918318      0.81781599802333
  H   -1.82340165764965      0.98214020184172     -0.20782015297160
  C   0.75707634447359      1.76077189826103      1.32947148660311
  C   2.05097471640144      2.54529315500230      1.12188108795736
  H   0.60940199763202      1.61345408115609      2.41812203344792
  H   -0.06011298824643      2.39783066094049      0.97786422077891
  H   2.91211814905522      2.03172433807697      1.57632162591756
  O   1.90889422586661      3.85556492531006      1.64212927736720
  H   2.25317124228122      2.66745531109607      0.05499772260255
  H   2.04410023108158     -1.36702709775790     -4.27509083960695
  H   3.26318398461707     -0.10872440386075     -4.00522618111514
  C   3.08533225318682     -0.67261668213814     -6.02330080000581
  H   2.43832412231413     -1.30524354920667     -6.64644708916873
  O   4.30761665907541     -1.32815660550500     -5.71970332566648
  H   3.25736164358159      0.27364606833694     -6.56139887992134
  H   2.51940573557483      2.16412206349852     -5.49081590803104
  C   2.53421720306902      2.43118079614351     -3.37761563428018
  H   0.95609681592137      2.61207535998232     -4.80593071262305
  O   1.66879517167841      2.29808682414543     -2.21562312264531
  H   2.83898535470405      3.47927602023338     -3.46388684000833
  H   3.42328291791028      1.84121464512477     -3.14414337929273
  C   0.17157186104097      0.31796281514842     -5.37088958839395
  H   -0.08556540883328     -0.73932700376568     -5.23075738905181
  C   0.22402431711489      0.65307571954221     -6.86886047803613
  H   -0.65217272081303      0.90314912694870     -4.94926807609156
  H   0.88307414911208     -0.02752750850525     -7.42447037517167
  H   0.60160822379061      1.67005747660854     -7.02146044036203
  O   -1.08905794202150      0.64952514647604     -7.40369934422028
  O   -0.79893972648469      1.65881246798380     -2.51128713702565
  C   -2.02640006117183      1.22000190696479     -2.78151879520470
  O   -0.27255708267198     -1.15799443027102     -2.03234812568207
  C   -2.42470213504021     -0.06999658865752     -2.68930453270598
  C   -1.66533721741602     -1.26810484528461     -2.22514816140284
  H   -2.08907337746723     -1.52335737322119     -1.23067410319339
  C   -1.91662474599749     -2.48302910911391     -3.12667170306366
  C   -2.94502070170827      2.31805845593701     -3.22514099064550
  H   -3.46617441295613     -0.27317816526241     -2.91698156072763
  H   -1.55712990793136     -2.28431230741113     -4.13986530779429
  H   -2.98641237307424     -2.69989174797491     -3.17426079324371
  H   -1.39809939118049     -3.35716877300616     -2.72739599884045
  H   -2.99904756989593      3.09649683600793     -2.45690400919719
  H   -3.94956326944895      1.94291076371388     -3.41869488933559
  H   -2.56277828314032      2.78735854502496     -4.13853849729744
  H   -1.38649631182359     -0.26155490604854     -7.50102042821184
  H   4.69828125717572     -1.66377150181818     -6.53333402055928
  H   1.90885953008920      3.81556120918487      2.60495122082103
  H   -3.23196223101308     -0.49610340224979      1.73212764143551
  H   0.92028431577153      2.91507343907355     -2.32041725837966
  H   2.97208995311060     -0.91696151724069     -2.06238505368993
