44
Coordinates from ORCA-job orca
  C   -0.83673274923412     -0.33373236874747      0.39298719993891
  C   -1.35704068572341      0.94209651793788      0.59664027123420
  C   -0.65457318724356      2.14243478982742      0.36988897949403
  O   0.54288719594494      2.21090704453738     -0.02111218386390
  O   0.35706397470795     -0.61606348701012      0.02705667073753
  C   -1.36104087886357      3.45730192963351      0.57683194792439
  C   -1.71895711879084     -1.53725881645863      0.57931901950636
  H   -2.38611262123290      1.01309667040941      0.92659613097673
  H   -2.72982272069186     -1.26820699018449      0.88725202065721
  H   -1.27154201878438     -2.20130870823962      1.32509837124189
  H   -1.76346993680348     -2.09986099180832     -0.35913615879978
  H   -2.40382495409003      3.33531085530381      0.87347745098920
  H   -1.30972575159251      4.03854358061801     -0.34926257973003
  H   -0.83058575610543      4.03037951177288      1.34358407069535
  Rh  2.08610453165242      0.54536401670977     -0.03076965639731
  C   2.26155043865527      0.32319463055410      1.74888888195826
  C   3.84629981521633      0.80604472804495     -0.13074657141993
  O   2.35911317970858      0.16282106725177      2.88180092545317
  O   4.99674929904033      0.93820309201535     -0.18486526819221
  N   1.96189511708611      0.55164339977550     -2.24186099774704
  C   0.52050008583786      0.65600857044221     -2.66447377514047
  C   2.59820858092160     -0.70001871911036     -2.80212786971716
  C   0.21097275290569      0.58254455158240     -4.14973679441325
  H   0.14828166836776      1.60162649147513     -2.27400816228109
  H   -0.02852099616556     -0.14564662773229     -2.16999435725818
  H   0.93878724148964      1.14142738113303     -4.75453531751355
  H   -0.76407275116425      1.07309729007164     -4.28824363029018
  O   0.14780998444358     -0.78774374623566     -4.55413619405533
  C   2.08020824179177     -2.03580980867342     -2.27701029147937
  H   3.66922471900498     -0.64521777975143     -2.57960896203184
  H   2.47228058724677     -0.67164251286115     -3.89173234140165
  O   2.71819915810950     -2.47295881592815     -1.09522651207935
  H   2.31218978965244     -2.78427464823922     -3.04286650519629
  H   0.98708011479248     -2.01898102451506     -2.17192068675451
  H   -0.12811481750968     -0.81925484190568     -5.47581402814270
  C   2.75905324325942      1.69128206147703     -2.81645280743064
  C   2.28800940343347      3.10093324115943     -2.48843500287315
  H   2.80634160602145      1.57348658400676     -3.91043783540194
  H   3.78360970202771      1.57353410707752     -2.45435003002423
  O   1.18656444864684      3.54818157947010     -3.28537886414483
  H   3.15120809698178      3.77024626965895     -2.61606879808642
  H   1.96301733342627      3.17155970783162     -1.44889441529104
  H   1.52124855455400      3.77413113301071     -4.15925272718543
  H   2.59511511966842     -1.77081648248736     -0.42668228826413
