67
Coordinates from ORCA-job orca
  Rh  -0.20012399789433      1.40756321182872     -0.08160435239263
  O   0.12216610839824      4.63332686696586     -3.98439273062745
  O   2.24553813870042      5.32867925851019     -0.48138117496874
  C   -2.67861721550183     -0.37615687957616     -0.20494179784519
  O   0.16728953226982     -1.94022912782484     -0.22046061567517
  C   -0.47430397551720     -2.10773845705786      1.03996561061933
  N   0.60429244520174      2.21675101763376     -1.85470295096984
  C   -0.54198594541860      2.68961168055249     -2.72605708500946
  C   -0.20968001090962      3.24405765068015     -4.10184106978309
  H   -1.07908271306925      3.46865295149504     -2.17994491765277
  H   -1.20603246868156      1.83420745069629     -2.84862603757795
  H   0.58742250255290      2.68382083476751     -4.60106001698279
  H   -1.11626690510832      3.12076901031589     -4.70960818483751
  C   1.59355302805697      3.32916219744092     -1.60970315041739
  C   1.11964365952962      4.50396444007819     -0.75977760050255
  H   1.93270733672159      3.69399386233034     -2.58647424774224
  H   2.45984168404870      2.89152954892022     -1.10584532447329
  C   1.41191689402053      1.14496945552108     -2.57140066654946
  C   0.67525070906099     -0.07314906001225     -3.07748378090188
  H   2.17223201070923      0.79896426418569     -1.86938353992189
  H   1.92932552143502      1.61895087221753     -3.41393495294584
  O   -0.07983873299752      0.26054764114647     -4.24375188839092
  H   0.04288621387962     -0.50592443669839     -2.29412297307295
  H   1.45540070268860     -0.81077493137683     -3.31317876561216
  C   -0.35738927271390     -0.90195974132604      1.95731058986329
  H   -0.04576481641619     -2.94532672775863      1.60196144181732
  H   -1.51760046275035     -2.37332665088798      0.82989518089565
  C   -2.48385697028416      0.04332232443078      1.22033087029282
  H   -3.61015186872121     -0.93043719184750     -0.42983509213389
  O   -1.90602324924138     -0.06951408918170     -1.08624457384743
  N   -1.07035580057049      0.37620023292641      1.56818688156873
  H   -2.90087181078080     -0.70086443825161      1.91378788319321
  H   -3.10078639445255      0.94830945463247      1.33602132526729
  H   0.69756720829105     -0.66515520378305      2.10204259709074
  H   -0.76530175407796     -1.21644886975920      2.93019088984395
  C   -1.14732724399533      1.23281702042494      2.81316667582466
  C   0.16903827643413      1.77797372437804      3.34827299559687
  H   -1.62026822497035      0.63930075255683      3.60874462028471
  H   -1.80276774896557      2.08036313837986      2.59924557979523
  O   -0.18633679063267      2.31281175240926      4.61123845433198
  H   0.56041191862721      2.54628725568219      2.66789623988859
  H   0.93246458613346      0.99269354002225      3.44969257885546
  H   0.53823236099839      2.85804761152862      4.93529040126385
  C   2.61987096258623      6.38723238764851     -1.28689821529310
  N   1.89105864027130      6.59408706419725     -2.41331351160470
  O   3.54648514718014      7.06954772757004     -0.92838683006225
  H   1.26677336496502      5.88961660230498     -2.77283763996067
  C   2.28936437302586      7.66443708371136     -3.31766860482596
  H   2.44526978767195      8.58596281087681     -2.75406092202329
  H   1.48931141036631      7.82686582545815     -4.04404998767354
  H   3.21990762079768      7.43187267098545     -3.84931856105610
  H   0.78395261151620      4.14754216129829      0.21679404769102
  H   0.29625369829388      5.06592593918533     -1.21638692340565
  C   1.50554994956727     -2.28658095111835     -0.34454568903768
  N   1.81844091954997     -3.55815323658449      0.00538315257081
  C   0.91395968525656     -4.70249569200515      0.06114814267770
  O   2.29263674483085     -1.47642730335499     -0.77587409805998
  H   0.19726489830464      5.00100265476736     -4.87211385721088
  H   -0.44245185983343     -0.55103337704700     -4.61305482453897
  C   1.49549696958607      1.10065974180870      0.52905201520829
  O   2.53311893932917      1.09835763663128      1.03347607375652
  H   2.80289621862057     -3.75440883954172     -0.09487832271990
  H   0.77098295024329     -5.06646536825837      1.08519609272882
  H   1.32652049063272     -5.52082574973128     -0.53468212882318
  H   -0.05553597753329     -4.43793862569985     -0.36416809202163
  C   -1.39521313747831      2.80505114025237      0.15567177882477
  O   -1.96176635743782      3.75169131622874      0.49385643670053
