60
Coordinates from ORCA-job orca
  Rh  22.21403191513254     -6.88209357127346    -15.45253971942314
  O   21.09478684091176     -7.12836124604145    -13.76530077012313
  O   20.50576284758412     -6.74175032457812    -16.56581117362285
  H   16.26776148321107     -3.02297131442530    -16.15630989738499
  C   23.74861054128113     -7.03102206615517    -14.43328457450167
  O   24.68908382592836     -7.14441164091052    -13.78353994235506
  C   23.88991580956766     -3.48878532251718    -15.47786745909601
  N   24.77557257108141     -3.48733632450015    -16.50339542269597
  C   19.31011833009148     -6.85922567424441    -16.11922604824602
  C   18.93993988261998     -7.06679254150104    -14.78989476104672
  C   19.81544683266760     -7.16304999115076    -13.69934346780968
  H   19.77980970728019     -8.11091731828323    -11.78956326756669
  H   18.18726900157776     -7.48276524938990    -12.31137852202230
  C   19.26339543210751     -7.29894577391818    -12.31011665237613
  C   18.24337422157087     -6.72517688072733    -17.17313261979480
  H   18.42953414711024     -7.44600254837604    -17.97516176522060
  H   17.24102990400314     -6.87650983441268    -16.77136922532341
  H   18.30722994680693     -5.72594217820307    -17.62024807518672
  H   19.47319098141876     -6.37125141348745    -11.75720063245786
  N   19.27806865914295     -3.03823833420426    -14.44571270386842
  C   17.92981586301732     -3.45698276819120    -14.82461599505672
  C   20.26039349133369     -3.13605642498800    -15.52012523748519
  C   19.31210654032531     -1.78077285582840    -13.69344080800290
  C   19.56341973176760     -2.00019254350489    -12.20871528975968
  O   20.91815218343795     -2.44341609689856    -12.02503251114391
  H   18.87824151166066     -2.74290295477328    -11.79052869250219
  H   19.45445074839862     -1.05600336211085    -11.65976666427997
  H   20.09186174047036     -1.11623543681868    -14.09036269484341
  H   18.36293212300855     -1.22855315329420    -13.79397104854587
  H   20.29605812808625     -2.24268887949096    -16.17361260101097
  H   20.00433856926620     -3.99455901631099    -16.15518330044352
  C   21.62242695759029     -3.37103015167143    -14.89720739646194
  H   17.24116506639647     -1.59975733655311    -15.76039367383927
  O   22.61688961290578     -3.39205014036503    -15.94374128326760
  H   17.96600407076297     -4.52400638550001    -15.08177331674790
  H   17.29872626361504     -3.38604712065341    -13.92901119001571
  C   17.28995472993436     -2.67270809385997    -15.97630229879183
  O   20.23502417073795     -4.34467215804347    -10.94131224853297
  H   27.79063624577779     -5.04092833452231    -15.99535493263960
  H   26.46500308765932     -5.61766195436980    -17.02578747809578
  H   26.24406701151714     -5.50142253187926    -15.26349601396847
  H   22.96200779124770     -3.59238051143091    -12.33054721401059
  H   17.85544798633883     -2.80236148885576    -16.90534547971338
  C   26.21149049549950     -3.59043122888758    -16.27718375642877
  C   26.70403785804032     -5.02678803905604    -16.13450512907144
  H   23.90120906310314     -5.46332922004862    -11.29739938733207
  N   22.40013128353733     -4.06604705950755    -11.63249985356537
  C   21.10705003744600     -3.69296238291780    -11.49444268621663
  H   24.40746051369450     -3.53522226129773    -17.43928270840632
  H   26.44435786380241     -3.02195946992091    -15.37101857072444
  H   26.71230305775889     -3.09393393598622    -17.11640719205347
  H   22.52219483096705     -5.56813913404951    -10.17391770088736
  H   22.35440957850702     -6.17995377913865    -11.83352298205078
  H   17.88138090488512     -7.13729561615744    -14.57748206390194
  C   22.81335354822753     -5.39793294896375    -11.21529298144867
  H   21.87222372435693     -2.57696718769826    -14.18866775815552
  H   21.63121990211150     -4.33082736105894    -14.36280598759022
  O   24.18942356586739     -3.54692727456632    -14.29351032979330
  C   23.21864427257510     -6.62520669072016    -16.97825619422943
  O   23.81508599320253     -6.45101016180147    -17.94508564884950
