79
Coordinates from ORCA-job orca
  Rh  -0.62381347201985      0.92925868461056      0.03205097397866
  O   -3.72738474984163      2.02502072342716     -0.06815218010726
  O   0.68919386902169      2.53595430837294      0.59194872542933
  O   -2.01823549221710     -0.54992970557643     -0.49544469336913
  C   -2.67791205709242     -0.94739717436306      0.76145679777520
  O   1.73365833100383     -0.72154217595512      0.17840746666441
  C   1.44710377048840     -1.46117738650123      1.36378107781797
  N   -0.79307429759498      2.12287022060386     -1.71451151228583
  C   -2.16221319357007      2.76064266623322     -1.86298192704203
  C   -3.41780867542282      1.99747805017190     -1.48026735153752
  H   -2.27091053567395      3.07202584097065     -2.91333738225257
  H   -2.16178869767849      3.68342147126894     -1.27307766389541
  H   -3.35170289608263      0.94440359217719     -1.72834168813461
  H   -4.24233472919345      2.42955315681721     -2.05918127780335
  C   0.14019262124932      3.29313300931397     -1.53551781796930
  C   0.20598457109347      3.71967385338515     -0.10265056191404
  H   -0.16208030126256      4.12922811263564     -2.18229874960127
  H   1.14552355200862      2.98725387587433     -1.83572643672091
  C   -0.31336432105932      1.54757918122774     -3.03001021514365
  C   -0.94969391004119      0.29318107700922     -3.56287916280640
  H   0.73683054288193      1.27879356385623     -2.87966159962959
  H   -0.37156785202013      2.34901963477881     -3.78665876738589
  O   -2.35919019215446      0.36832166046147     -3.81644964672642
  H   -0.77158660358930     -0.51699224035567     -2.85770526656953
  H   -0.40315214250028      0.02654971259842     -4.47752743045578
  H   -2.49805093296210      0.74076736117025     -4.69323521753764
  C   0.66512394211908     -0.60035028250016      2.34778493523184
  H   2.38004277499393     -1.74098501951131      1.87753509326303
  H   0.90261282773119     -2.37694491847811      1.10725405708370
  C   -1.59375017507866     -1.28113163382563      1.74424262827643
  H   -3.32441126694401     -1.80981930578582      0.56043563632370
  H   -3.28286309081907     -0.08456571938091      1.04079340729075
  N   -0.66851192960479     -0.10143424514360      1.87316313473667
  H   -1.04010269679268     -2.14551517693791      1.38226622528618
  H   -2.02251479908060     -1.53815535221080      2.72224338518283
  H   1.27093011142019      0.26359701114079      2.61441903026167
  H   0.51605008126384     -1.20614165790442      3.25736099644924
  C   -1.30400472351784      0.72637714731970      2.96656482351971
  C   -0.77674176674848      2.13019858914267      3.21150977413706
  H   -1.24795298145511      0.15895154180966      3.90921333365994
  H   -2.36053787454355      0.83889075364453      2.70600121617510
  O   -1.56488381114787      2.75097845606690      4.21415751976214
  H   -0.83410743030854      2.68911502652096      2.27558325038451
  H   0.25356370991318      2.11315100500863      3.58465406433761
  H   -2.36196955647434      3.07435805279073      3.77418580231560
  C   1.75742567953181      2.67202288631928      1.50449840568262
  N   1.82675111820867      3.88339062651334      2.10405474195394
  O   2.51461898370153      1.75611712315202      1.67351220629330
  H   0.98387438512514      4.43099631877373      2.18026638416190
  C   2.84689999110688      4.09581812762516      3.12849409988967
  H   3.81976504216121      3.79408691830063      2.73882050952465
  H   2.64015718837044      3.51627767713000      4.03559341416769
  H   2.87509654595286      5.15782329590823      3.37675647859253
  H   -0.75947682236306      4.00345652421479      0.33274885084544
  H   0.92786985597001      4.53494788976657     -0.00391860659951
  C   2.00156145354939     -1.35203076164812     -0.99813470141832
  N   2.47854621032811     -2.61564763920516     -0.92660999500974
  C   2.72020004824888     -3.37487250319355     -2.14252378230924
  H   2.66741186834196     -3.04609274447506     -0.03998503075438
  O   1.83746991007372     -0.75205195493254     -2.04408353511880
  H   3.41807069120050     -2.84851834501419     -2.79968761698396
  H   1.78632911194431     -3.53824251862672     -2.69097547587119
  H   3.14627126119681     -4.34307566954610     -1.87360782246936
  C   -1.64991128841724     -1.75963019017484     -1.20313672657156
  N   -2.56909932759507     -2.03606103580365     -2.13783747347332
  O   -0.69157639189002     -2.42040165723728     -0.89930497655427
  H   -3.14419682669403     -1.26974127481963     -2.45629402327030
  C   -2.34473761882653     -3.13864280463847     -3.06624607979482
  H   -2.04959959736111     -4.02935652802708     -2.50985623664616
  H   -1.55459953262053     -2.90068930122196     -3.78864629908326
  H   -3.27320065896698     -3.34087177392774     -3.60178143496111
  C   -3.82141716260234      3.22589651838068      0.57477805580651
  N   -4.71376190539732      4.11774534765277      0.06744059028549
  O   -3.14445335782537      3.45170027753491      1.56224364133784
  C   -5.88903637383112      3.80048584912970     -0.73905371017689
  H   -4.74728981092221      4.97299928210412      0.60098488986002
  H   -6.07590311674328      2.72537958034187     -0.72609667160877
  H   -5.78248407977460      4.13628740455452     -1.77693059814814
  H   -6.76327174387756      4.29734552381024     -0.31057656973364
