43
Coordinates from ORCA-job orca
  C   -0.96468544744647     -0.26064222972507      0.16204737626837
  C   -1.20942780256521      1.09563936978029      0.40635801347420
  C   -0.22810486296193      2.07415649825945      0.55431961996490
  O   1.04407047173650      1.84939431632161      0.56207076499481
  O   0.19941344016088     -0.77190975399158      0.00229230387402
  C   -0.59165494699411      3.50829067938640      0.73335514629192
  C   -2.09371353765470     -1.23318640056109      0.07017726552103
  H   -2.24124900611395      1.40748698560798      0.50127343072580
  H   -3.06434288040424     -0.74090250923272      0.10958238460279
  H   -2.01803993716072     -1.94589308476751      0.89839927103319
  H   -2.00928828853389     -1.81307179909527     -0.85377195070576
  H   -1.66408072102383      3.64423576829853      0.86689162619825
  H   -0.26728350946746      4.05394391795293     -0.16018014927292
  H   -0.05251814043137      3.92600091448862      1.58759808830639
  Rh  1.95094730141581      0.16468314279097      0.11175144496206
  C   2.19572755901701     -0.36733371999845      2.08353487860462
  C   3.57194578558741      1.04219152980121      0.12997442588322
  O   2.64773977087413      0.03140720436468      3.05207133056613
  O   4.56173929184863      1.60160229593938      0.16334199954910
  N   1.76191725488520      0.32893252312520     -2.53667924528010
  C   0.32426921605085      0.24782971915218     -2.90235680445095
  C   2.48421310822460     -0.92230467977327     -2.83487579562266
  C   -0.02335689262780      0.53001749784945     -4.35645922806051
  H   -0.23936448506719      0.95969144048908     -2.29382267535475
  H   -0.01474816400130     -0.76204096193826     -2.65215254407540
  H   0.18600595823607      1.57866263821467     -4.60731732698608
  H   -1.10993095377519      0.38008208152746     -4.45202209078647
  O   0.70473227712041     -0.35866335517541     -5.19174375388659
  C   2.30351263936645     -1.95041388181877     -1.70786938562935
  H   3.55228532610582     -0.70397927233974     -2.92193807669659
  H   2.14122881355368     -1.36751495152961     -3.77558144623777
  O   2.83758222159702     -1.41405748458048     -0.53215305035664
  H   2.85846206862233     -2.86307497686767     -1.95444135308351
  H   1.23843035474326     -2.19934843160488     -1.58799961180070
  H   0.44177884405957     -0.22090117755076     -6.10807246198420
  C   2.46342088615814      1.52344408138335     -3.05924461733513
  C   2.07462897154591      2.85526271961818     -2.42918799323843
  H   2.35739512210207      1.56635442940337     -4.15363718965204
  H   3.53269908400956      1.38929096076075     -2.85770754857831
  O   0.69690461158570      3.20174241293493     -2.56956267789582
  H   2.72592689492673      3.62352318699559     -2.86573622863403
  H   2.27961076358282      2.83224571583238     -1.35456148293097
  H   0.59880753911273      3.82041864027180     -3.29996068228494
