80
Coordinates from ORCA-job orca
  Rh  -0.36160898058105      1.21738188716129     -0.34770722624729
  O   -0.18680586778614      4.75258934560183     -4.04426690787056
  O   1.81008080980412      5.24125420828699     -0.47851638432172
  C   -2.81067880249281     -1.48992174709408      2.17758343304300
  O   1.35244841221442     -1.38082315735873      0.13189745486435
  C   0.51409769664454     -1.86807115498262      1.17497902444270
  N   0.39702178413572      2.15415761215751     -2.11199144729572
  C   -0.72707333590892      2.63771945034236     -2.99459934537583
  C   -0.35465158831267      3.34839039402346     -4.28739776008692
  H   -1.35242552504352      3.30759818386431     -2.40046079876387
  H   -1.31200135460355      1.76322289872915     -3.25997891341532
  H   0.53737190274673      2.91767289117520     -4.75699482508731
  H   -1.19019317547487      3.18724964445755     -4.98113183295235
  C   1.32285740307419      3.30218253306310     -1.80222513815886
  C   0.74210955820583      4.41200121711422     -0.93074584188925
  H   1.67515732473188      3.71803005540601     -2.75362399608343
  H   2.19858266367904      2.89660134609928     -1.28994176754211
  C   1.26188629190302      1.13508659349213     -2.82943870386369
  C   0.57539149673519     -0.05538271356099     -3.45984752955018
  H   1.97005643112574      0.74658438911785     -2.09215139215108
  H   1.83831896958207      1.65635348101935     -3.60522463274065
  O   -0.14331391072281      0.34071517466591     -4.63615737858933
  H   -0.08990432054661     -0.55137462669993     -2.74104227243873
  H   1.37941586092187     -0.75705119287797     -3.70980674473322
  C   -0.00490159152575     -0.71431344019927      2.01066996253055
  H   1.09332254019206     -2.49070839185621      1.87517437176879
  H   -0.29342802371036     -2.48646126120531      0.75975963582749
  C   -2.26764248655387     -0.66274537169348      1.08744355396441
  H   -2.47880639379677     -2.49959959824754      2.40198306702658
  O   -3.91681642738409     -1.03569347048988      2.77135540589227
  N   -1.04134738973078      0.19312165359998      1.41394856320026
  H   -3.04846789392691      0.02465633486254      0.75259965403616
  H   -1.98169823021622     -1.29770387139981      0.24320167291701
  H   0.84366554303645     -0.11220800003515      2.33688446512705
  H   -0.46103891795504     -1.15981049564974      2.91358022696740
  C   -1.49046249987764      1.14379645973758      2.49273640405859
  C   -0.49993821951604      2.19461799707024      2.97131574394285
  H   -1.78829538018554      0.54558168756275      3.36619741283412
  H   -2.38168501266040      1.65720433030086      2.12775039598988
  O   -1.14987865240525      2.77265566334360      4.09539295456697
  H   -0.31881027635295      2.93884565590405      2.18607737304679
  H   0.46461270439172      1.75210742459900      3.25932726054833
  H   -0.63244229085869      3.52806821835992      4.39349216269898
  C   2.26118548881943      6.32979556853212     -1.19421024189621
  N   1.66028952285461      6.58059030502168     -2.38584884352211
  O   3.13902890824056      7.00304440066688     -0.71301321859583
  H   1.05476467742753      5.90596095546367     -2.82603155246066
  C   2.14595587605161      7.68905993673147     -3.19553722997636
  H   2.21238717515737      8.59368373943064     -2.58785082517494
  H   1.44084941809382      7.86329704970862     -4.01200006801738
  H   3.13986604823668      7.48994322543650     -3.61359521908789
  H   0.29736669369449      3.99540075496109     -0.02582798447212
  H   -0.03955987800402      4.98770583098135     -1.43858720409869
  C   1.95835799843999     -2.23543078946844     -0.75805803784249
  N   1.85641719923882     -3.56589131096793     -0.51076146971082
  C   2.58481863988442     -4.50157785265901     -1.36495954129059
  H   1.60039576586096     -3.88797066735519      0.40645598203618
  O   2.51739960317885     -1.75519745444556     -1.71738861781496
  H   3.66848556510665     -4.41761698737412     -1.23079861769109
  H   2.35225823171387     -4.29700280956809     -2.41092760694750
  H   2.26667004455736     -5.51673104428166     -1.12143837856602
  H   -0.14109133767092      5.19894671978737     -4.89717492142301
  H   -4.26985051099173     -1.68135303726025      3.39956356499376
  O   -1.80854764174690      2.86334415168246      0.06065381484830
  C   -3.00915704758767      2.93177179696850     -0.33592743932488
  O   -1.87725181061375      0.41833263076300     -1.42564402248122
  C   -3.06445446762027      0.83806416215950     -1.68349865278732
  H   -0.25431101189059     -0.43508347922314     -5.19436545111549
  C   -3.65470357994603      1.98110693552219     -1.15517246377623
  C   -3.76526968701480      4.15838837955020      0.09309970941878
  C   -3.82467629725540     -0.02636166356506     -2.64443612160201
  H   -3.35754094495754      5.02837734897829     -0.43361392065656
  H   -3.60704401697276      4.33059729841526      1.16104835455373
  H   -4.83217774474478      4.08629241744790     -0.11931683688459
  H   -3.89537243294746     -1.04505068668226     -2.24855822202136
  H   -3.26457954843741     -0.09097071303115     -3.58386944492362
  H   -4.82589798312061      0.35349465002397     -2.84479466108391
  H   -4.67800898348632      2.18781956400623     -1.44199314813326
  C   1.16991722802581      1.57247281550981      0.49351221340594
  O   2.16285360383088      1.76807521726527      1.05128716888553
