67
Coordinates from ORCA-job orca
  Rh  -0.43567702126060      1.41171191971641      0.18007711159083
  O   -0.00813571958720      4.43506739432638     -3.93813088866533
  O   2.38211935081037      5.06380027727490     -0.65978308440984
  C   -2.42132986960650     -0.51010356226669     -0.11765949669133
  O   0.33349291218182     -1.97374912179848      0.20685533493808
  C   -0.23367369244117     -2.03995083847405      1.52590969959880
  N   0.37725286267430      2.04310667815474     -1.73765014243693
  C   -0.76399895998516      2.59116778160567     -2.56624140756434
  C   -0.44700764943629      3.07011741303476     -3.97400631754461
  H   -1.19300849729170      3.43057848845366     -2.01100883303830
  H   -1.51085070506802      1.80290000563121     -2.62381611846369
  H   0.28546030495023      2.42980366434281     -4.47782936073480
  H   -1.38308038451051      2.99038755568205     -4.54156595874730
  C   1.48391844559770      3.06266310320826     -1.61974057057354
  C   1.16131443553866      4.38745825105318     -0.93264693350305
  H   1.85012797634111      3.26872742530248     -2.63201906580664
  H   2.30839942007165      2.59789012164762     -1.07067472836594
  C   1.05709168246600      0.85990870575762     -2.40743357908079
  C   0.22556593460940     -0.30751787380385     -2.88992725954812
  H   1.79044366994515      0.48215196818860     -1.68769914351471
  H   1.62163673758595      1.24817315413100     -3.26467835316148
  O   -0.55653180307893      0.08830800974487     -4.01170104665592
  H   -0.39224436146615     -0.71841738423386     -2.08498435314542
  H   0.96260510237657     -1.07091916448412     -3.18206977158758
  C   -0.36256981596111     -0.76515980968185      2.34403311834104
  H   0.38270300755289     -2.71056301570733      2.13813873608649
  H   -1.20086402880418     -2.52183767392852      1.37311969026724
  C   -2.59004085029376     -0.23553365578690      1.31403724624536
  H   -2.59411393685295     -1.47155018715783     -0.59520576293250
  O   -1.87846569258019      0.47216217795562     -0.82298158461054
  N   -1.26769699035899      0.34106945151169      1.85667818053671
  H   -2.89545730790744     -1.10662246108517      1.90461755482297
  H   -3.33429870137011      0.55579033902625      1.47891263195272
  H   0.62761297142244     -0.35086252619711      2.52189300880257
  H   -0.76695288442368     -1.10373664853249      3.31111181765288
  C   -1.62906556661791      1.18104227875542      3.05138913591580
  C   -0.49462258577640      1.88977823734764      3.77839508791108
  H   -2.13538272698806      0.52972751738152      3.77749344739656
  H   -2.35730342701568      1.93035232885553      2.73081500376818
  O   -1.11648469055731      2.40351516923708      4.94244465236690
  H   -0.08196964144582      2.69775319245891      3.15722412306093
  H   0.32466886654864      1.20130602370271      4.03116410238421
  H   -0.48857455199224      2.95994840563618      5.41533392093877
  C   3.05826800315374      5.80600708120375     -1.61387746926081
  N   2.50783283377128      5.87242567785151     -2.85120864526042
  O   4.09493499191771      6.32699318953350     -1.29092412632965
  H   1.60019663415633      5.48716394521148     -3.05695769288198
  C   3.14289166545730      6.71163568548976     -3.85951080000593
  H   3.04697157533828      7.77647369208306     -3.62122699127479
  H   2.66944707542343      6.51808015320619     -4.82479304951972
  H   4.20677153306666      6.47492142967588     -3.93069395488452
  H   0.72576679916349      4.22231232607795      0.05370786311300
  H   0.45955577294180      5.00418824625792     -1.50611776348270
  C   1.67706121001825     -1.71780247671096      0.14548663314478
  N   2.23823184790025     -2.26738038277040     -0.95961111717285
  C   1.68287012966827     -3.39382937485161     -1.70729884706460
  O   2.26632368686435     -1.02809403036607      0.95494418158994
  H   -0.06290216110553      4.79058116336159     -4.83204933600717
  H   -1.05698751809331     -0.67287950592880     -4.32318859526412
  C   1.13857847062506      1.80215906885779      1.05448534284013
  O   2.11193089258815      2.02548173589351      1.61007893322236
  H   3.23868958393718     -2.13952225382711     -0.98875064152093
  H   1.77084740705731     -4.33757767550438     -1.15648533014292
  H   2.22839150145353     -3.48989372258877     -2.64842293477348
  H   0.63060263050698     -3.21930969004879     -1.93176558668971
  C   -1.34225877729086      3.02642643702004      0.60269291381808
  O   -1.70243289211456      4.00776300178591      1.06712002731283
