64
Coordinates from ORCA-job orca
  C   -0.25133261682901     -1.86368556460889      1.66060369415471
  C   -1.23144232771914     -0.89423014789306      1.45033409289498
  C   -1.10715995552642      0.23441733231670      0.63236215177044
  O   -0.06830028768654      0.54446871897721     -0.04586395198268
  O   0.94338591485521     -1.84960798493909      1.18687926124927
  C   -2.25233166928067      1.19247240596354      0.49931466024862
  C   -0.56020137440366     -3.06874155059090      2.49712770626522
  H   -2.18241520146179     -1.04410262962304      1.94480930034214
  H   -1.46481603456458     -2.93166166598187      3.08902390654505
  H   0.28056713730673     -3.30738958983488      3.15281669291908
  H   -0.70608296276101     -3.93060844959962      1.83630823375903
  H   -3.12331567984831      0.87834216614840      1.07330757218844
  H   -2.52895733098559      1.28625254060290     -0.55546755721593
  H   -1.94019081839454      2.18622350811756      0.83709341842790
  Rh  1.60769229791880     -0.57077218135448     -0.15221204361674
  N   2.26754392586091      0.45170327934058     -2.04011023662539
  C   1.41968613830243      1.65804592525590     -2.34722278183676
  C   1.99136196112463     -0.65618874862195     -3.02100927155949
  C   1.27625396336210      2.05929202427417     -3.80834227009211
  H   1.82552794011313      2.49409210261872     -1.77567260536586
  H   0.41850539748930      1.47256777957183     -1.95530849455659
  H   2.20995016113266      1.91909899651263     -4.36470105446661
  H   1.04841735284234      3.13391887372499     -3.83081862321216
  O   0.20206817368244      1.30175138267858     -4.37792176797270
  C   0.64246642045057     -1.27927402665805     -2.80542629344114
  H   2.76525620624489     -1.41613954164242     -2.86316336091591
  H   2.07412621989166     -0.28587461642354     -4.04777413877420
  O   0.61681940119412     -1.82604831056296     -1.45500598495221
  H   0.45879854525770     -2.08449955821555     -3.52292475663663
  H   -0.17810004620321     -0.56502007274127     -2.85977970018391
  H   0.04181710636679      1.62347018877409     -5.27147921316359
  C   3.76098875381317      0.73139162604809     -2.19782136586878
  C   4.28835369436846      2.16973250520062     -2.15550524407127
  H   4.07403019689319      0.33640274170233     -3.17326777929937
  H   4.25554842258031      0.10535499319164     -1.45109868109161
  O   4.15998915537649      2.86504552134805     -3.38975275109671
  H   5.34429401302280      2.09782951263784     -1.85403456033777
  H   3.79623023282900      2.80615927873079     -1.41872727331102
  H   4.86862514938150      2.58758015252383     -3.98005785483570
  H   1.20734200593292     -2.60112629163318     -1.42399919102745
  N   2.71203657791452      0.36016267253599      1.34379761939270
  C   3.06222647529268      1.78694612799527      1.07748980269124
  C   4.04513000506869     -0.39939041809751      1.37242533164473
  C   3.88284992085517     -1.79730429011993      0.80040448411318
  H   4.44772476213856     -0.38944077719498      2.38908888574086
  H   4.73043978163363      0.15906245525449      0.72846230865368
  H   4.88419856457333     -2.20838882416796      0.60423361144984
  O   3.16650584758858     -1.71572002014013     -0.40779388478096
  H   3.39712557701766     -2.47370788828830      1.51881086348370
  C   1.91185643908203      2.78385621144660      1.06511280320662
  H   3.54134993259110      1.81610267554646      0.10428544668871
  H   3.81138984228245      2.10360495198437      1.81787975277893
  H   1.04930350919314      2.37545655955709      0.52517389505070
  O   2.45340877423759      3.92321394059821      0.39755896514488
  H   1.59317911803009      3.04033295372355      2.08475920467492
  C   2.01903041655299      0.34444835337509      2.69957727326400
  C   2.24968303164956     -0.84383328963083      3.63406717296098
  H   0.94884016946290      0.47285984551749      2.51478166777396
  H   2.36437849794207      1.23182961290533      3.24630079398908
  H   2.28799479442144     -1.78723218003210      3.09376072803952
  H   1.37944959824018     -0.88990593069434      4.30559446089872
  O   3.46203870924411     -0.75365928946443      4.37290151216423
  H   3.34003772092941     -0.14663791905022      5.11070738472253
  H   1.86298424782810      4.67287006420455      0.52442053869866
