49
Coordinates from ORCA-job orca
  Rh  21.29711873560910     -3.97284172334226    -14.17770137251985
  O   21.05218272384990     -2.88140855971488    -16.30659172695214
  O   19.32653874447096     -4.58876012659728    -14.70044070009212
  H   17.28580219125752     -0.71405659253929    -13.61220349201655
  C   21.72680616680092     -5.74085008178188    -14.38835205013971
  O   21.92546877904038     -6.87060169732087    -14.48602106986618
  C   22.89866458830025     -3.76766100524047    -13.32196084185537
  N   20.66194387445345     -5.99761905316834    -11.10675537987260
  C   18.76967578482411     -4.71081942210353    -15.84974501194354
  C   19.18996279948748     -4.15304681338992    -17.05445845282820
  C   20.30267078803456     -3.29038665627378    -17.22797322752997
  H   19.86763275866062     -3.09942401683024    -19.36394975104538
  H   21.59025106964080     -3.22741714506920    -18.92853424742708
  C   20.62231954471664     -2.80998658369019    -18.62909017190136
  C   17.51757561805075     -5.55646028627512    -15.83032400850871
  H   17.77266911249707     -6.56987813608579    -15.50049333103992
  H   16.81626798962256     -5.14720238840889    -15.09504351522984
  H   17.02983007781067     -5.60623042300494    -16.80578934740024
  H   20.73121891726367     -1.72089859957947    -18.62336521464928
  N   20.53993416429000     -1.92900214162671    -13.46520257682336
  C   19.07791527067830     -1.86753563140080    -13.79238352037744
  C   21.22286036897828     -0.80458405658389    -14.18933690153954
  C   20.77985572100555     -1.77212015054695    -11.99557270256513
  C   19.85388126094564     -2.54162122446348    -11.06372346716884
  O   19.77103052454314     -3.95159320407871    -11.30679437140505
  H   18.82099971005031     -2.19261907377012    -11.14109473805834
  H   20.21163740265260     -2.36326072773318    -10.04284117750096
  H   21.81189247314508     -2.05218314082317    -11.77883145708784
  H   20.66383991093190     -0.71029358040010    -11.71675981473323
  H   20.88656286510062      0.14055108616022    -13.73710274375507
  H   20.86468628733442     -0.83852379536934    -15.22155917719690
  C   22.74050893733144     -0.83777607277985    -14.19832352896402
  H   18.46990812619251     -0.29156696938386    -12.37618885924034
  O   23.91992472471093     -3.69858467144180    -12.79137776550789
  H   18.99999226000309     -2.04064208445166    -14.87011141923780
  H   18.60015944827507     -2.72329391213463    -13.30957784914576
  C   18.35538499496759     -0.56973963072953    -13.42860928252835
  O   21.78539027397921     -4.19720829129722    -10.25815783684665
  C   20.83331993244830     -4.68190616529797    -10.84460615354124
  H   18.62356056198205     -6.58623292499987    -11.19928773577662
  H   19.32065322649694     -6.01722152520731    -12.73722482039276
  H   21.41402538270452     -6.58685654280338    -10.79382565988230
  H   18.67859616510825      0.27635462509872    -14.04056278406249
  H   18.60765106608994     -4.39672008996374    -17.93579858145224
  C   19.52924585138611     -6.57564655712981    -11.81907917815453
  H   19.78117880266311     -7.60529808345587    -12.08578433075724
  H   23.11290317060698     -1.67967434117012    -14.78688267321391
  H   23.09567782997912      0.08237215488264    -14.67449006927629
  H   23.17851702102499     -0.87507696668434    -13.19655691098399
