32
Coordinates from ORCA-job orca
  Rh  22.29218854141493     -4.88183046562687    -13.93585479019132
  O   21.84878870565972     -3.76490707752593    -15.74104012903708
  O   20.26910079464722     -6.00284673523111    -14.48871056352803
  H   23.54632693410148     -1.63743015021496    -14.60970519151407
  C   21.21723116834925     -3.70481537900300    -12.96082061429386
  O   20.40447361987801     -3.09184200156886    -12.46063537648089
  H   24.98600011222494     -1.31516355258410    -13.61714625479198
  H   19.10277339646980     -4.73423922778959    -17.29454369358204
  C   19.58270163596951     -5.75670059497201    -15.50395378257422
  C   19.82198430214535     -4.79032840639873    -16.49164135945042
  C   20.88779426717736     -3.89549128117956    -16.54846709710676
  H   20.01411757280416     -2.31623545225320    -17.71360742923528
  H   20.89571446604040     -3.51221174533645    -18.66449942815108
  C   20.89975030114060     -2.94731922784669    -17.73537540684674
  C   18.33700390841597     -6.60460467493912    -15.69805538212427
  H   18.25009705412950     -7.31314548383853    -14.87916455668466
  H   17.45659853751269     -5.96666058729971    -15.72315506868951
  H   18.40065159686371     -7.14335217315252    -16.64073695006653
  H   21.78804563788710     -2.32257672414969    -17.69519909886718
  N   24.31847754111621     -3.34106214016589    -13.69074113497776
  H   23.42413516834376     -1.65205321673497    -12.84499346829139
  C   24.06346240381097     -1.90442258229589    -13.68943216593152
  C   23.05061505853612     -6.23691428330464    -14.98960006929148
  O   23.23418380882939     -7.09003589988305    -15.71813140687012
  H   24.95656887490370     -3.57633228721173    -14.44631097650474
  H   24.73654735205357     -3.63455965795740    -12.81099824530419
  H   25.09025405116289     -6.07858293907591    -13.70805635182188
  C   24.92432604041269     -6.73712363834429    -12.86814887336978
  C   23.84196132340500     -6.62673578943987    -12.08357050100894
  H   25.65222344344359     -7.50906863578644    -12.70161967177595
  O   22.85426647538240     -5.78664481101985    -12.15987106143825
  H   23.75348690576275     -7.30726217787515    -11.22914490020047
