47
Coordinates from ORCA-job orca
  Rh  -0.91982052504967      0.72706732499286     -0.09841419812632
  O   -2.68337265875104      1.45144933117371      0.02190289929615
  O   -0.21243280554741      2.38316636131362      0.53815476602899
  O   -1.59370511277757     -0.91383225472649     -0.77750900749980
  C   -2.48889809488292     -1.51019409840761      0.14118437466478
  O   0.87354906799816      0.05381285362622     -0.18102170213915
  C   1.18949494865120     -0.84229854140185      0.86474389609402
  N   -0.73679468764156      1.76660683458940     -1.85807737418050
  C   -1.83415495770126      2.81369285194510     -1.79879918441786
  C   -3.05256392082390      2.24518129333598     -1.09371938661128
  H   -2.07196630199134      3.15614208702263     -2.80890496125125
  H   -1.43984754991198      3.64948010506772     -1.21717270288851
  H   -3.65221784355276      1.63034949583429     -1.78034251549049
  H   -3.69825919356092      3.06563545057932     -0.75351867890281
  C   0.60505012082315      2.43278687092889     -1.74071804706872
  C   0.79084376388988      2.93308025129409     -0.29325531545444
  H   0.66673156987434      3.25217398334835     -2.46704804282672
  H   1.35745934420823      1.68278242641224     -1.98890693925729
  H   0.71570072115185      4.02486792558802     -0.21609262482991
  H   1.78838270209694      2.64441655707365      0.06364815576346
  C   -0.73307413312740      0.95284177254627     -3.12536256657758
  C   -2.05270577948678      0.37600621109891     -3.59498054042585
  H   -0.02573245442237      0.13599877155750     -2.95707729488754
  H   -0.34012451724418      1.59511814470198     -3.92532263075006
  O   -2.83424880602088      1.41129688218609     -4.18333598259108
  H   -2.58008347322188     -0.12494190837439     -2.77254721009611
  H   -1.79546606912651     -0.39372080151275     -4.33691636389400
  H   -3.56345891972351      1.01317932670548     -4.67033807781073
  C   0.38949993713939     -0.48380545605938      2.10951163815050
  H   2.26302972709330     -0.77674810501354      1.08233238757640
  H   0.98770681057155     -1.87553047071355      0.54084705756584
  C   -1.69569966392603     -1.63688211490987      1.42897884718222
  H   -2.79332160164326     -2.49549583934594     -0.22982701843767
  H   -3.38293987291041     -0.88674134717756      0.28404312657061
  N   -1.04899133707428     -0.29127760646643      1.71371630299207
  H   -0.90664168858108     -2.37991766251449      1.29392897739515
  H   -2.31088421575694     -1.93848513566671      2.28208719136406
  H   0.75096782830683      0.46448603458802      2.51320200197838
  H   0.46445766809973     -1.25182672118351      2.88951886158134
  C   -1.85080111625414      0.37058014979434      2.80283123512751
  C   -1.51922805403974      1.81802643097488      3.17059577477371
  H   -1.73274316598056     -0.23990268700793      3.70849500956930
  H   -2.90004225273761      0.31885417483149      2.49318701556527
  O   -2.19906746843136      2.10978718969014      4.38154695997567
  H   -1.79409302461747      2.50304686763834      2.36378988191899
  H   -0.45259651866420      1.95300710498283      3.37112607269114
  H   -3.07685875752157      2.44807503395955      4.17852268819011
