45
Coordinates from ORCA-job orca
  Rh  -0.92965745118608      0.69717944798320     -0.08683003940615
  O   -2.42276484024593      2.35781986169991     -0.31476062073722
  O   -0.06853393388350      2.39115010754900      0.64622523372022
  O   -1.96886945812439     -0.83034499616351     -0.82473551041152
  C   -2.64921616120986     -1.45132378708476      0.21597840819366
  O   0.75727191101500     -0.24724562182886     -0.27849904003404
  C   1.16367156494993     -0.96506776590911      0.85155496427877
  N   -0.74701755103577      1.72664312911447     -1.83998856509552
  C   -1.96890333345639      2.56482559934318     -1.66211788045126
  H   -2.75811198349145      2.22506147001515     -2.32738686968646
  H   -1.75925880383135      3.62763495758959     -1.84377215478858
  C   0.53913863085939      2.48424069135990     -1.70097335698722
  C   0.63273994471025      3.13504843556446     -0.32048783703297
  H   0.62930306842776      3.22309165467111     -2.51198127769516
  H   1.32590948340260      1.73367408600583     -1.81385592862957
  H   0.24378693556428      4.17034690099563     -0.36247166314446
  H   1.70232619548969      3.22127003311107     -0.06389169717078
  C   -0.67370293965404      0.92430704357464     -3.10417176587325
  C   -1.96878472489971      0.33058341950006     -3.60693276534407
  H   0.03404970428650      0.11873522957166     -2.88822553904730
  H   -0.25325252312496      1.55659152563493     -3.90056012408338
  O   -2.66484853134320      1.33413046061209     -4.36833147547682
  H   -2.56151105453612     -0.05422312968480     -2.76818441432718
  H   -1.70546465201169     -0.51953948174016     -4.25281427251509
  H   -3.51120581232384      0.96392360268497     -4.63914033148517
  C   0.39125487915545     -0.50836515797997      2.08085019868681
  H   2.23741401969328     -0.79473622426592      1.04190305138207
  H   1.04537269668464     -2.05595590359585      0.70413073785610
  C   -1.68588180568627     -1.66492864745162      1.36886876217564
  H   -3.04121709624912     -2.43058686481079     -0.10936546816426
  H   -3.52446590887292     -0.86295035434655      0.57149788814050
  N   -1.04758679677582     -0.32974362708173      1.69567162738164
  H   -0.90196257895845     -2.35078354991926      1.04276306920386
  H   -2.15922314966529     -2.07650461983645      2.27046434534410
  H   0.75826929921492      0.47357944074430      2.38789075989097
  H   0.47863868364992     -1.21507256788151      2.92146529967193
  C   -1.83444365179110      0.27157766399524      2.80945862573402
  C   -1.42832370381767      1.65865335149641      3.29768297484076
  H   -1.79851927198298     -0.41124285370184      3.67305088007257
  H   -2.87752692729067      0.31091617063047      2.46863214313454
  O   -2.29137321135161      2.03132358576334      4.37242200872762
  H   -1.43591263422069      2.39333378794782      2.48729794320262
  H   -0.41977978707698      1.65572946867226      3.71766239531657
  H   -3.15297834478001      2.24789109766728      4.00071387659269
  H   -1.74509196822563      2.80968371078462      0.26608249503976
