49

Rh    21.599220   -3.881938  -14.162549
O     21.622980   -3.221946  -16.071030
O     19.677214   -4.645559  -14.306503
H     17.215782   -1.103069  -13.772973
C     22.327276   -5.747598  -14.845138
O     22.291162   -6.045916  -15.948240
C     23.722048   -3.279096  -13.879444
N     19.948799   -6.004819  -11.754045
C     19.056692   -4.657844  -15.359253
C     19.452320   -4.097446  -16.626472
C     20.706833   -3.504243  -16.833357
H     20.181660   -2.449324  -18.637825
H     20.890194   -4.001631  -18.851192
C     20.960585   -3.112272  -18.272713
C     17.815935   -5.433054  -15.323030
H     17.895769   -6.560822  -15.208140
H     17.155087   -5.211415  -14.473576
H     17.407951   -5.198407  -16.260725
H     21.908974   -2.643842  -18.566584
N     20.465645   -1.947512  -13.531199
C     19.069029   -1.909281  -13.650936
C     21.015793   -0.648524  -13.985477
C     20.825277   -1.888755  -12.153829
C     19.936386   -2.501600  -11.061265
O     19.635376   -3.862913  -11.033870
H     18.986986   -2.015218  -11.050391
H     20.454676   -2.241886  -10.120283
H     21.844753   -2.044888  -11.986055
H     20.672935   -0.765254  -11.834855
H     20.679985    0.127100  -13.304259
H     20.691818   -0.377231  -14.994227
C     22.510723   -0.546629  -14.066229
H     18.022743   -0.655302  -12.218586
O     24.920609   -3.086601  -13.951425
H     19.052752   -2.266808  -14.675037
H     18.653877   -2.960938  -13.302186
C     18.133780   -0.826791  -13.268829
O     21.648249   -4.571318  -11.822796
C     20.496265   -4.783866  -11.604104
H     18.221006   -5.544254  -10.880305
H     18.112391   -5.805630  -12.647029
H     20.530304   -6.570355  -12.314186
H     18.591068   -0.005449  -13.804138
H     18.908997   -4.257167  -17.539967
C     18.559933   -6.170433  -11.702441
H     18.345446   -7.216012  -11.572668
H     23.029985   -1.386560  -14.530293
H     22.645241    0.406113  -14.594262
H     22.960411   -0.411413  -13.087625