44
Coordinates from ORCA-job orca
  Rh  1.11816920003021      0.27739052718241     -0.33764137977560
  C   1.78596493516091      1.23536587656006     -1.76521583662639
  O   2.21674608728663      1.77271663089336     -2.68663898052927
  H   -2.88537787078321     -1.16506362393805      0.90472884324264
  C   2.83096324227483      0.08964724825381      0.33927522461069
  O   3.88297208648381     -0.02945494864428      0.77803922753080
  H   -3.23411164916378      1.50291552868954     -1.18756440706618
  H   -0.49426976325119     -1.83218147811752      3.38403207991442
  C   -1.85579468103991      0.02905979490089     -0.51411566219117
  C   -1.90909392525782     -0.80507665838164      0.60366051448455
  C   -0.81136244505474     -1.23251807384012      1.35885831309433
  H   -0.57966224267600     -3.15747196199918      2.22239816088468
  H   -2.07867391249725     -2.33932671014362      2.72430215683862
  C   -1.02184821868104     -2.19263502474557      2.49610954727788
  C   -3.12149163887380      0.41367358052777     -1.22403025837210
  H   -3.03932210682621      0.14543133574324     -2.28291568595505
  H   -4.00049265957117     -0.05725639205645     -0.78135419840892
  O   0.40905155922653     -0.89645793823033      1.17316006163544
  O   -0.78760021677215      0.52134041438939     -1.03068213341352
  C   -0.47236976422812     -2.85312398360757     -2.12495354346430
  C   0.58800932182596     -2.95617492861670     -3.21943389613140
  H   -1.39410754095272     -2.39001033474205     -2.51358356261153
  O   -0.74139851647866     -4.11364082558099     -1.51189577506823
  H   -0.09187021338614     -2.20129738948033     -1.33162832469577
  N   0.80206884694290     -1.65145309591013     -3.85452535082473
  H   1.51470330365562     -3.30032298469097     -2.74867839717081
  H   0.30372231497686     -3.73418958827658     -3.95807687928243
  C   2.16933124372374     -1.47268427274084     -4.35321283295908
  H   2.77319150460008     -1.17841181445460     -2.30337999298545
  C   -0.17313351646657     -1.39897872266110     -4.92664044571503
  C   3.22799173448223     -1.52748211004442     -3.24554046133180
  H   2.41669482048194     -2.20146383471856     -5.15136412046213
  H   2.22702556894322     -0.47799817277208     -4.81500607050036
  H   3.58634693503939     -2.54866518302356     -3.08171098419231
  O   4.39257510859344     -0.77814678398972     -3.58341519117016
  H   0.40394327962692      0.67617829365682     -5.21000177185730
  C   -0.51072756034017      0.07906077723295     -5.05882811104598
  H   0.18838197229287     -1.79200278854986     -5.89839050603939
  H   -1.10522146154466     -1.92742235025762     -4.69219104752240
  H   -1.14445591883629      0.22552593261918     -5.94156619831383
  O   -1.25270348593845      0.56110154460110     -3.94800439523463
  H   -1.14168166255372     -4.69024377481015     -2.17202642174085
  H   4.13722056400831      0.14912296324974     -3.65820761553910
  H   -0.73351847388266      0.41488832722453     -3.14208436961657
