34
Coordinates from ORCA-job orca
  Rh  1.83779557667181      2.09971533833049      3.19428927798647
  O   1.78066969755062      4.10648937561618      2.73985836309155
  O   0.19864360543140      1.77135437243003      2.04809762305747
  C   1.88585248614930      0.34505068273518      3.61960050814350
  H   6.08206304794696      0.54497154876072      4.07586004082753
  C   0.91279007263761      4.67112681682646      1.98533438214331
  C   -0.43878474631024      2.65920631690184      1.39676726143180
  O   1.89565713995953     -0.78439219215278      3.88749335728011
  H   4.66326229555758      1.90971867011848      1.85594513350141
  C   -0.14285425438236      4.03241431283321      1.33515293358800
  C   1.09659178127115      6.15818912718474      1.82024878536338
  C   -1.62870980725402      2.12939740707828      0.63585346129730
  H   -0.79563873626220      4.64898080344505      0.72832460302733
  H   1.05699627784900      6.63987323937420      2.80335392801472
  H   0.34018740358521      6.60338685692909      1.17142565764971
  H   2.09035996755034      6.35680790184425      1.40415837400995
  H   -1.30662680791507      1.31384407795835     -0.01933395633628
  H   -2.11998732716402      2.90184537985453      0.04126351717048
  H   -2.34971791312026      1.70741941213636      1.34422334112910
  H   3.64427758263625      0.74050861801281      5.41731729008891
  H   4.57562614773163      0.08073021388256      3.27830249460722
  H   6.25302488936360      2.34735257531434      2.51083756091748
  H   5.00268542141961      1.85341966519487      5.70938563116945
  C   3.06680963219575      3.50187256829508      5.47004949686544
  H   2.36243867095063      2.95540710086443      6.10261931403811
  H   3.91729059197820      3.84706176108012      6.07989315137241
  H   2.55663763364200      4.36163003425503      5.03089910095098
  N   3.54010634148788      2.61092229985551      4.38764217795514
  C   4.31439775997273      1.46063205996648      4.94234753343713
  C   5.10453375371446      0.91183359186502      3.75030058525892
  C   5.21762292973166      2.11517132729940      2.77605219901676
  C   4.56715020722660      3.27561942302713      3.52752598338021
  H   4.09231329600269      4.02513406731804      2.89203033613461
  H   5.29871832977572      3.77290780080681      4.18773733427426
