53
Coordinates from ORCA-job orca
  Rh  0.99647862743505      2.53364661729037      4.82286183973538
  O   -0.28734673485870      3.70537143133456      3.53773974528635
  O   2.14845183129104      2.65390584088532      2.18009373643888
  C   -0.52338386859175      2.59675382250155      6.31599971144131
  H   -2.46646603309270     -0.77587139493600      4.75069349239372
  C   -0.40429881967292      4.18107629344266      2.35598028476702
  C   1.66220153507048      3.28289840627187      1.21815860012635
  O   -0.41099178593884      2.23376629683112      7.41959870189773
  H   -2.01630516255575      2.09367206453056      3.94994688820086
  C   0.44724060940357      4.02563545387324      1.26075848344542
  C   -1.65611846961636      5.01567460721412      2.16766167508314
  C   2.41735892356581      3.24716534498065     -0.10177340608492
  H   0.14476066127609      4.52490069934441      0.34668393069175
  H   -2.53285532695197      4.40641557407321      2.41374918058565
  H   -1.75926535135877      5.40551257595222      1.15282847436667
  H   -1.64437660893718      5.85300089247827      2.87475584174682
  H   3.46128441334708      3.52292557874048      0.07807101012517
  H   1.99163539524213      3.90283031875051     -0.86546019895448
  H   2.41941810731708      2.21799533482799     -0.47831727576905
  H   0.07306443433471     -0.15620222920553      5.93739162016283
  H   -2.18176665225960      0.63477143938032      5.77357651976832
  H   -2.83102655508609      0.82220816433131      3.01234716481008
  H   -0.22829824197037     -1.31447920484961      4.62316461506675
  C   1.54572552037851     -0.09734520074223      3.41463461030004
  H   2.20896925598557     -0.38926594590156      4.23178367039239
  H   1.22210735896453     -1.00544405733483      2.88271699563504
  H   2.07767671341581      0.56967973325479      2.73417472487178
  N   0.35655800245918      0.60795629275750      3.95896486889245
  C   -0.36588205268057     -0.27075030287187      4.94314999077362
  C   -1.85253016581369      0.12232664909746      4.86713752322020
  C   -1.96095132937365      1.04914383404330      3.63508073585018
  C   -0.66186795092841      0.80697247039838      2.88130510596548
  H   -0.35238719523836      1.61147749342056      2.21220746539796
  H   -0.72365079241400     -0.13119480838581      2.30325959793079
  C   4.15002812436726      4.11702914854702      5.83783257670759
  C   2.81315546550269      4.43846971955930      6.52799325363740
  C   3.88169868259546      4.33111288919302      4.32776045620931
  H   4.92661643079830      4.79199303532060      6.20947371575076
  H   4.48153567751682      3.09700749489298      6.04156629654520
  H   2.50854721177125      3.72672034550581      7.29977796577441
  H   2.85381199409177      5.43875211551654      6.98522534050683
  N   1.78198792957205      4.47981362726134      5.43797260041110
  C   2.54560235056972      5.05843266874425      4.28728055696387
  H   3.78851443520988      3.37797197698194      3.80188610612403
  H   4.66672546229025      4.91612129012917      3.84019238066178
  C   0.66202332669736      5.36245371426409      5.84424114697332
  H   1.98908694824888      4.92675452383994      3.35775238071362
  H   2.68271280973002      6.13620247887696      4.48038198210914
  H   -0.11436494921486      5.34082464296608      5.07875179620382
  H   0.23889664036502      4.99814391083623      6.78302356994829
  H   1.03298350749752      6.38812929179317      5.98723077950149
  C   2.22889404341984      1.61845965576861      5.77100685729742
  O   2.97711937838493      0.99353612794633      6.40304074866263
