836

Cu    2.944537   10.683911    3.107190
Cu    3.162872   12.593090   11.464823
Cu    0.109168   22.322411    4.178816
Cu    5.998241    0.954590   10.393197
 S    1.330322   12.018148    4.061366
 S    4.777087   11.258853   10.510648
 S    1.723383    0.379647    3.224641
 S    4.384026   22.897353   11.347373
 O    1.430649    9.220253    0.561460
 O    4.676760   14.056748   14.010554
 O    1.623055   20.858753    6.724547
 O    4.484354    2.418248    7.847467
 N    0.595240   11.533288    7.922804
 N    5.512169   11.743712    6.649210
 N   -1.348126   23.171788   13.935217
 N    7.455535    0.105212    0.636797
 C    1.255375   11.567272    5.729716
 C    4.852034   11.709728    8.842298
 C    1.798330   23.205773    1.556291
 C    4.309079    0.071228   13.015723
 S    2.299156    8.194668    1.113885
 S    3.808253   15.082332   13.458129
 S    0.754549   19.833168    6.172122
 S    5.352860    3.443832    8.399892
 O    2.959166    7.333885    0.148635
 O    3.148243   15.943116   14.423379
 O    0.094538   18.972385    7.137372
 O    6.012871    4.304616    7.434641
 N    0.494941   12.178526    6.690012
 N    5.612468   11.098474    7.882002
 N    2.558764    0.540026    0.595995
 N    3.548645   22.736975   13.976019
 C    1.891308   10.490013    6.388371
 C    4.216101   12.786988    8.183643
 C    1.162396   22.128513    0.897636
 C    4.945013    1.148487   13.674378
 N    3.278881    9.493059    4.663044
 N    2.828528   13.783941    9.908969
 N   -0.225177   21.131559    2.622963
 N    6.332586    2.145441   11.949051
 C    1.419009   10.523998    7.733368
 C    4.688400   12.753003    6.838646
 C   -2.171895   22.162498   14.124653
 C    8.279304    1.114503    0.447361
 N    3.321586    8.932782    2.089627
 N    2.785823   14.344219   12.482387
 N   -0.267882   20.571282    5.196380
 N    6.375291    2.705718    9.375634
 C   -0.438080   13.270218    6.606951
 C    6.545489   10.006782    7.965063
 C    3.491784    1.631718    0.679056
 C    2.615625   21.645282   13.892958
 N    5.062023   11.395255    2.937718
 N    1.045386   11.881745   11.634296
 N    7.905681   23.033756    4.348289
 N   -1.798272    0.243245   10.223725
 C   -0.313735   14.279509    5.664142
 C    6.421144    8.997492    8.907872
 C    3.367440    2.641009    1.621865
 C    2.739969   20.635992   12.950149
 H    0.401166   14.259491    5.037545
 H    5.706243    9.017509    9.534469
 H    2.652538    2.620991    2.248462
 H    3.454871   20.656010   12.323552
 N    2.849966   11.964145    1.534433
 N    3.257443   11.312855   13.037581
 N    0.203738    0.325645    5.751574
 N    5.903671   22.951356    8.820440
 C   -1.234683   15.323017    5.633540
 C    7.342092    7.953983    8.938473
 C    4.288388    3.684517    1.652467
 C    1.819021   19.592483   12.919547
 H   -1.156808   16.002938    4.974885
 H    7.264217    7.274063    9.597128
 H    4.210513    4.364438    2.311121
 H    1.896896   18.912563   12.260892
 C    7.646080   15.379346    6.560320
 C   -1.538671    7.897654    8.011693
 C    5.321624    3.740846    0.725686
 C    0.785785   19.536154   13.846327
 H    7.020728   16.093718    6.544291
 H   -0.913319    7.183283    8.027723
 H    5.946976    4.455218    0.741716
 H    0.160433   18.821783   13.830298
 C    7.542024   14.373781    7.508958
 C   -1.434615    8.903219    7.063055
 C    1.619090    2.735281   14.349062
 C    4.488319   20.541720    0.222951
 H    6.842763   14.408464    8.151585
 H   -0.735354    8.868537    6.420429
 H    2.318351    2.769963   13.706436
 H    3.789058   20.507037    0.865578
 C   -1.471086   13.316074    7.536645
 C    7.578495    9.960927    7.035368
 C    0.718200    1.677573   14.321375
 C    5.389209   21.599427    0.250639
 H   -1.559946   12.630100    8.188015
 H    7.667355   10.646901    6.383999
 H    0.807060    0.991600   13.670006
 H    5.300349   22.285401    0.902008
 C    1.733249    9.573830    8.856870
 C    4.374160   13.703170    5.715144
 C   -2.486135   21.212331   13.001151
 C    8.593544    2.064670    1.570863
 H    1.105411    9.720476    9.594214
 H    5.001998   13.556525    4.977800
 H   -1.858297   21.358976   12.263807
 H    7.965706    1.918025    2.308207
 H    2.648375    9.729786    9.171626
 H    3.459034   13.547214    5.400388
 H    6.512738   21.368287   12.686395
 H   -0.405329    1.908714    1.885619
 H    1.652041    8.652061    8.537743
 H    4.455368   14.624940    6.034271
 H   -2.404927   20.290561   13.320278
 H    8.512336    2.986439    1.251736
 C    2.786155    9.520293    5.862321
 C    3.321254   13.756707    8.709693
 C    0.267549   21.158794    1.423686
 C    5.839860    2.118207   13.148328
 H    3.049138    8.819655    6.449573
 H    3.058271   14.457345    8.122440
 H    0.004567   20.458155    0.836433
 H    6.102842    2.818845   13.735580
 C    4.179740    8.131122    2.907117
 C    1.927669   15.145879   11.664897
 C   -1.126035   19.769622    4.378890
 C    7.233444    3.507379   10.193124
 C    4.167538    8.437447    4.278343
 C    1.939871   14.839553   10.293671
 C    8.800166   20.075948    3.007664
 C   -2.692757    3.201053   11.564350
 C    5.034498    7.784760    5.175979
 C    1.072911   15.492241    9.396035
 C    7.933206   19.423260    2.110028
 C   -1.825797    3.853740   12.461986
 H    5.035442    8.014271    6.098388
 H    1.071967   15.262729    8.473626
 H    7.932262   19.652772    1.187619
 H   -1.824853    3.624229   13.384395
 C    5.892149    6.798048    4.693646
 C    0.215260   16.478952    9.878368
 C    7.075555   18.436548    2.592361
 C   -0.968146    4.840452   11.979653
 H    6.472308    6.340655    5.292556
 H   -0.364899   16.936346    9.279458
 H    6.495396   17.979155    1.993451
 H   -0.387987    5.297845   12.578562
 C    5.902686    6.481248    3.351563
 C    0.204723   16.795752   11.220451
 C    7.065018   18.119748    3.934444
 C   -0.957609    5.157252   10.637570
 H    6.490522    5.805284    3.036808
 H   -0.383113   17.471716   11.535206
 H    6.477182   17.443784    4.249199
 H   -0.369773    5.833216   10.322815
 C    5.057608    7.140918    2.442270
 C    1.049801   16.136082   12.129744
 C    7.910096   18.779419    4.843737
 C   -1.802687    4.497582    9.728276
 H    5.080838    6.917924    1.518404
 H    1.026571   16.359076   13.053610
 H    7.886866   18.556425    5.767603
 H   -1.779457    4.720576    8.804411
 C    1.290756    7.123461    2.121685
 C    4.816653   16.153540   12.450328
 C    1.762949   18.761961    5.164322
 C    4.344460    4.515040    9.407692
 C    0.458330    7.673030    3.080524
 C    5.649079   15.603970   11.491490
 C    2.595374   19.311531    4.205483
 C    3.512035    3.965470   10.366531
 H    0.396144    8.614818    3.178156
 H    5.711265   14.662183   11.393858
 H    2.657560   20.253318    4.107851
 H    3.449849    3.023683   10.464163
 C   -0.288743    6.830403    3.902385
 C    6.396152   16.446597   10.669628
 C    3.342448   18.468904    3.383622
 C    2.764961    4.808097   11.188392
 H   -0.865142    7.206559    4.556669
 H    6.972551   16.070441   10.015345
 H    3.918846   18.845059    2.729338
 H    2.188563    4.431941   11.842676
 C   -0.202852    5.441232    3.778523
 C    6.310261   17.835769   10.793491
 C    3.256556   17.079732    3.507484
 C    2.850853    6.197269   11.064530
 C    0.633079    4.925646    2.813856
 C    5.474330   18.351354   11.758158
 C    2.420625   16.564146    4.472151
 C    3.686784    6.712854   10.099863
 H    0.700222    3.982695    2.716223
 H    5.407187   19.294306   11.855790
 H    2.353482   15.621195    4.569784
 H    3.753927    7.655805   10.002230
 C    1.385331    5.751048    1.975965
 C    4.722078   17.525952   12.596049
 C    1.668373   17.389549    5.310042
 C    4.439036    5.887452    9.261972
 H    1.954100    5.374660    1.312938
 H    4.153309   17.902341   13.259075
 H    1.099605   17.013160    5.973068
 H    5.007804    6.263841    8.598945
 C   -0.982369    4.517833    4.698017
 C    7.089778   18.759168    9.873996
 C    4.036074   16.156333    2.587990
 C    2.071336    7.120667   11.984024
 H   -0.473793    3.691732    4.842280
 H    6.581202   19.585268    9.729733
 H    3.527497   15.330233    2.443727
 H    2.579912    7.946768   12.128287
 H    8.067024    4.301590    4.288544
 H   -1.959615   18.975411   10.283470
 H    4.900680   15.940090    2.997463
 H    1.206729    7.336911   11.574550
 H   -1.131611    4.962657    5.557766
 H    7.239020   18.314344    9.014248
 H    4.185316   16.601157    1.728241
 H    1.922093    6.675844   12.843773
 C    6.137941   11.064024    3.669233
 C   -0.030532   12.212976   10.902781
 C    6.829763   22.702524    3.616774
 C   -0.722354    0.574476   10.955240
 H    6.047028   10.388525    4.332260
 H    0.060381   12.888475   10.239754
 H    6.920676   22.027026    2.953747
 H   -0.813267    1.249975   11.618267
 C    7.388402   11.671088    3.497283
 C   -1.280993   11.605913   11.074731
 C    5.579302    0.032588    3.788724
 C    0.528107   23.244413   10.783290
 H    8.134321   11.405730    4.023333
 H   -2.026912   11.871270   10.548681
 H    4.833383   23.044231    3.262674
 H    1.274026    0.232770   11.309340
 C    7.508931   12.659430    2.550102
 C   -1.401521   10.617571   12.021911
 C    5.458774    1.020930    4.735905
 C    0.648635   22.256071    9.836109
 H    8.341116   13.100296    2.423326
 H   -2.233707   10.176705   12.148688
 H    4.626588    1.461795    4.862681
 H    1.480821   21.815205    9.709333
 C    6.401421   13.013008    1.776328
 C   -0.294012   10.263993   12.795685
 C    6.566283    1.374507    5.509678
 C   -0.458874   21.902493    9.062335
 H    6.466638   13.698515    1.120588
 H   -0.359229    9.578485   13.451426
 H    6.501066    2.060015    6.165419
 H   -0.393657   21.216985    8.406595
 C    5.196963   12.338673    1.984708
 C    0.910446   10.938328   12.587306
 C    7.770741    0.700173    5.301299
 C   -1.663332   22.576828    9.270715
 C    3.974204   12.630799    1.170133
 C    2.133205   10.646201   13.401881
 C   -0.920500    0.992299    6.115874
 C    7.027909   22.284702    8.456140
 C    3.966031   13.545584    0.112205
 C    2.141378    9.731416   14.459809
 C   -0.912327    1.907084    7.173802
 C    7.019736   21.369916    7.398211
 H    0.961365   13.980167   14.419008
 H    5.146044    9.296834    0.153006
 H   -1.714251    2.341666    7.439013
 H    7.821660   20.935334    7.133001
 C   -1.036253   13.814667   14.024106
 C    7.143662    9.462333    0.547908
 C    0.283367    2.176167    7.833915
 C    5.824042   21.100834    6.738099
 H   -1.061279   14.441051   13.311535
 H    7.168688    8.835949    1.260479
 H    0.308393    2.802551    8.546486
 H    5.799016   20.474449    6.025528
 C   -2.189915   13.157324   14.417550
 C    8.297324   10.119676    0.154463
 C    1.437029    1.518824    7.440470
 C    4.670380   21.758177    7.131544
 H   -3.021964   13.335393   13.993505
 H    9.129373    9.941607    0.578509
 H    2.269078    1.696893    7.864516
 H    3.838331   21.580107    6.707498
 C    1.707729   12.242073    0.867035
 C    4.399680   11.034928   13.704979
 C    1.345975    0.603572    6.418972
 C    4.761434   22.673428    8.153042
 H    0.918764   11.775835    1.120588
 H    5.188645   11.501165   13.451426
 H    2.134941    0.137335    6.165419
 H    3.972468   23.139666    8.406595
 C    2.094976    5.542254    6.500575
 C    4.012433   17.734746    8.071438
 C    0.958728   17.180754    0.785432
 C    5.148681    6.096246   13.786582
 N    1.444913    6.168405    7.163602
 N    4.662496   17.108596    7.408412
 N    1.608791   17.806905    0.122405
 N    4.498618    5.470095   14.449609
 C    2.941775    4.746180    5.623340
 C    3.165634   18.530820    8.948674
 C    0.111929   16.384680    1.662667
 C    5.995480    6.892320   12.909347
 H    3.861716    4.755491    5.961411
 H    2.245693   18.521509    8.610603
 H    9.105988   16.393991    1.324596
 H   -2.998579    6.883009   13.247418
 H    2.922383    5.120940    4.718418
 H    3.185026   18.156060    9.853596
 H    0.131321   16.759440    2.567589
 H    5.976088    6.517560   12.004425
 H    2.612392    3.822083    5.601482
 H    3.495017   19.454917    8.970532
 H    0.441313   15.460584    1.684525
 H    5.666096    7.816417   12.887489
 N   -2.008319   23.033756    4.348289
 N    0.203738   23.602645    5.751574
 S    1.723383   23.656648    3.224641
 S    4.384026   -0.379647   11.347373
 N    5.903671   -0.325645    8.820440
 N    8.115728    0.243245   10.223725
 C    1.798330   -0.071228    1.556291
 C    4.309079   23.348228   13.015723
 N    7.355236   -0.540026   -0.595995
 N    2.558764   23.817026    0.595995
 N    3.548645   -0.540026   13.976019
 N    2.458465   -0.105212   -0.636797
 C    1.634696   22.162498   -0.447361
 C    4.472713    1.114503   15.019375
 C   -1.113834   20.075948    3.007664
 C    7.221243    3.201053   11.564350
 C   -2.644194   22.128513   15.469650
 C    8.751603    1.148487   -0.897636
 C    4.524790    1.677573   -0.250639
 C    1.582619   21.599427   14.822652
 C    7.770741   23.977173    5.301299
 C   -1.663332   -0.700173    9.270715
 C   -2.267920   15.379346    6.560320
 C    8.375329    7.897654    8.011693
 C    8.679316   15.323017    5.633540
 C   -2.571907    7.953983    8.938473
 C    5.425680    2.735281   -0.222951
 C    0.681729   20.541720   14.794965
 C    8.442914   13.316074    7.536645
 C   -2.335505    9.960927    7.035368
 C    1.515034    3.740846   15.297700
 C    4.592375   19.536154   -0.725686
 C   -2.371976   14.373781    7.508958
 C    8.479385    8.903219    7.063055
 C   -0.314806    1.631718   15.251070
 C    6.422215   21.645282   -0.679056
 H   -3.401261   21.368287   12.686395
 H    9.508670    1.908714    1.885619
 C   -2.003904   18.779419    4.843737
 C    8.111313    4.497582    9.728276
 C    8.787964   19.769622    4.378890
 N    9.688823   21.131559    2.622963
 N   -3.581414    2.145441   11.949051
 C   -2.680555    3.507379   10.193124
 H   -1.846976    4.301590    4.288544
 H    7.954385   18.975411   10.283470
 C    5.579302   23.309588    3.788724
 C    0.528107   -0.032588   10.783290
 H    4.833383   -0.232770    3.262674
 C    6.829763   -0.574476    3.616774
 C   -0.722354   23.851477   10.955240
 H    1.274026   23.509770   11.309340
 N    7.905681   -0.243245    4.348289
 C    8.993500    0.992299    6.115874
 C   -2.886091   22.284702    8.456140
 N   -1.798272   23.520245   10.223725
 C   -2.143259    0.700173    5.301299
 C    8.250668   22.576828    9.270715
 C    2.770338   13.814667   -0.547908
 H    4.767956   13.980167   -0.153006
 H    1.339453    9.296834   14.725020
 C    3.337071    9.462333   15.119921
 C    0.159441   13.545584   14.684218
 C    5.947969    9.731416   -0.112205
 C   -2.098861   12.242073   15.439049
 C    8.206270   11.034928   -0.867035
 C    1.616676   13.157324   -0.154463
 C    4.490733   10.119676   14.726477
 H   -0.808011   16.393991    1.324596
 H    6.915420    6.883009   13.247418
 C   -3.084237   22.702524    3.616774
 C   -2.143259   23.977173    5.301299
 C   -0.920500   24.269299    6.115874
 C    1.345975   23.880573    6.418972
 C    4.761434   -0.603572    8.153042
 C    7.027909   -0.992299    8.456140
 C    8.250668   -0.700173    9.270715
 C    9.191646    0.574476   10.955240
 C    1.162396   -1.148487    0.897636
 C    4.945013   24.425488   13.674378
 C    6.422215   -1.631718   -0.679056
 C    8.115670    0.071228   -1.556291
 C    3.491784   24.908718    0.679056
 C    2.615625   -1.631718   13.892958
 C    1.634696   -1.114503   -0.447361
 C    1.320456   21.212331   -1.570863
 N    2.458465   23.171788   -0.636797
 N    3.648944    0.105212   15.208810
 C    4.786953    2.064670   16.142877
 C   -1.980793   19.423260    2.110028
 C    8.088202    3.853740   12.461986
 C   -3.539041   21.158794   15.995700
 C   -2.008261   23.205773   16.128305
 C    9.646450    2.118207   -1.423686
 H    4.613650    0.991600   -0.902008
 H    1.493759   22.285401   15.474022
 C    6.566283   24.651508    5.509678
 C    8.993500   24.269299    6.115874
 C   -2.886091   -0.992299    8.456140
 C   -0.458874   -1.374507    9.062335
 H   -2.893271   16.093718    6.544291
 H    9.000680    7.183283    8.027723
 C    9.600264   14.279509    5.664142
 H    8.757191   16.002938    4.974885
 C   -3.492855    8.997492    8.907872
 H   -2.649782    7.274063    9.597128
 H    6.124941    2.769963   -0.865578
 H   -0.017532   20.507037   15.437592
 C    9.475920   13.270218    6.606951
 H    8.354054   12.630100    8.188015
 C   -3.368511   10.006782    7.965063
 H   -2.246645   10.646901    6.383999
 C    0.481797    3.684517   16.224480
 H    2.140385    4.455218   15.313729
 H    3.967024   18.821783   -0.741716
 C    5.625612   19.592483   -1.652467
 H   -3.071237   14.408464    8.151585
 H    9.178646    8.868537    6.420429
 N   -1.247827    0.540026   15.168009
 C   -0.439151    2.641009   16.193879
 C    6.546560   20.635992   -1.621865
 N    7.355236   22.736975   -0.595995
 C   -2.848981   18.119748    3.934444
 H   -2.027134   18.556425    5.767603
 H    8.134543    4.720576    8.804411
 C    8.956390    5.157252   10.637570
 N    9.646118   20.571282    5.196380
 C   10.181549   21.158794    1.423686
 C   -4.074140    2.118207   13.148328
 N   -3.538709    2.705718    9.375634
 C    5.458774   24.297930    4.735905
 C    0.648635   -1.020930    9.836109
 H    6.920676   -1.249975    2.953747
 H   -0.813267   24.526975   11.618267
 N   10.117738    0.325645    5.751574
 C    9.001673    1.907084    7.173802
 C   -2.894264   21.369916    7.398211
 N   -4.010329   22.951356    8.820440
 N   -2.008319   -0.243245    4.348289
 C   -3.347717    1.374507    5.509678
 C    9.455126   21.902493    9.062335
 N    8.115728   23.520245   10.223725
 H    2.745312   14.441051   -1.260479
 H    3.362097    8.835949   15.832493
 C    0.167614   12.630799   15.742147
 C    5.939795   10.646201   -1.170133
 H   -2.887827   11.775835   15.692602
 N   -0.956624   11.964145   16.106447
 N    7.064033   11.312855   -1.534433
 H    8.995236   11.501165   -1.120588
 H    0.784626   13.335393   -0.578509
 H    5.322783    9.941607   15.150523
 H   -2.993323   22.027026    2.953747
 C   -4.334697   23.309588    3.788724
 C   -3.347717   24.651508    5.509678
 C   -0.912327   25.184085    7.173802
 H    2.134941   23.414335    6.165419
 C    1.437029   24.795824    7.440470
 C    4.670380   -1.518824    7.131544
 H    3.972468   -0.137335    8.406595
 C    7.019736   -1.907084    7.398211
 C    9.455126   -1.374507    9.062335
 C   10.442106   -0.032588   10.783290
 H    9.100732    1.249975   11.618267
 C    0.267549   -2.118207    1.423686
 C    5.839860   25.395207   13.148328
 C    4.472713   24.391503   15.019375
 C    5.389209   -1.677573    0.250639
 C    6.546560   -2.641009   -1.621865
 S    8.190617   -0.379647   -3.224641
 C    3.367440   25.918009    1.621865
 C    4.524790   24.954574   -0.250639
 C    1.582619   -1.677573   14.822652
 C    2.739969   -2.641009   12.950149
 C    1.320456   -2.064670   -1.570863
 H    0.405329   21.368287   -1.885619
 H    1.401664   20.290561   -1.251736
 H    1.948294   21.358976   -2.308207
 H    4.159115    1.918025   16.880221
 H    4.705745    2.986439   15.823750
 H    5.702080    1.908714   16.457633
 C   -2.838444   18.436548    2.592361
 H   -1.981738   19.652772    1.187619
 H    8.089147    3.624229   13.384395
 C    8.945853    4.840452   11.979653
 H   -3.802024   20.458155   15.408447
 N   -4.031767   21.131559   17.194976
 N   -1.247827   23.817026   15.168009
 S   -2.083208   23.656648   17.796655
 N   10.139176    2.145441   -2.622963
 H    9.909433    2.818845   -0.836433
 H    6.501066   25.337015    6.165419
 N   10.117738   23.602645    5.751574
 C    9.001673   25.184085    7.173802
 C   -2.894264   -1.907084    7.398211
 N   -4.010329   -0.325645    8.820440
 H   -0.393657   -2.060015    8.406595
 H   10.315166   14.259491    5.037545
 H   -4.207757    9.017509    9.534469
 N   10.408941   12.178526    6.690012
 N   -4.301531   11.098474    7.882002
 H    0.403922    4.364438   16.883135
 H    5.703487   18.912563   -2.311121
 C   -2.008261   -0.071228   16.128305
 H   -1.154052    2.620991   16.820476
 H    7.261461   20.656010   -2.248462
 C    8.115670   23.348228   -1.556291
 H   -3.436818   17.443784    4.249199
 H    9.544227    5.833216   10.322815
 H    9.918566   20.458155    0.836433
 C   11.076396   22.128513    0.897636
 C   -4.968987    1.148487   13.674378
 H   -3.811157    2.818845   13.735580
 H    4.626588   24.738796    4.862681
 H    1.480821   -1.461795    9.709333
 C   11.259975    0.603572    6.418972
 H    8.199748    2.341666    7.439013
 C   10.197367    2.176167    7.833915
 C   -4.089958   21.100834    6.738099
 H   -2.092339   20.935334    7.133001
 C   -5.152566   22.673428    8.153042
 C   -3.084237   -0.574476    3.616774
 C   -4.455226    1.020930    4.735905
 H   -3.412934    2.060015    6.165419
 H    9.520343   21.216985    8.406595
 C   10.562635   22.256071    9.836109
 C    9.191646   23.851477   10.955240
 C    1.390373   12.338673   16.556722
 C    4.717036   10.938328   -1.984708
 H   -5.080617   23.044231    3.262674
 C   -4.455226   24.297930    4.735905
 H   -3.412934   25.337015    6.165419
 H   -1.714251   25.618667    7.439013
 C    0.283367   25.453167    7.833915
 H    2.269078   24.973894    7.864516
 H    3.838331   -1.696893    6.707498
 C    5.824042   -2.176167    6.738099
 H    7.821660   -2.341666    7.133001
 H    9.520343   -2.060015    8.406595
 C   10.562635   -1.020930    9.836109
 H   11.188026    0.232770   11.309340
 H    0.004567   -2.818845    0.836433
 N   -0.225177   -2.145441    2.622963
 N    6.332586   25.422442   11.949051
 H    6.102842   26.095845   13.735580
 N    3.648944   23.382212   15.208810
 C    4.786953   25.341670   16.142877
 C    4.488319   -2.735281    0.222951
 H    5.300349   -0.991600    0.902008
 C    5.625612   -3.684517   -1.652467
 H    7.261461   -2.620991   -2.248462
 H    2.652538   25.897991    2.248462
 C    4.288388   26.961517    1.652467
 H    4.613650   24.268600   -0.902008
 C    5.425680   26.012281   -0.222951
 C    0.681729   -2.735281   14.794965
 H    1.493759   -0.991600   15.474022
 C    1.819021   -3.684517   12.919547
 H    3.454871   -2.620991   12.323552
 H    0.405329   -1.908714   -1.885619
 H    1.401664   -2.986439   -1.251736
 H    1.948294   -1.918025   -2.308207
 H   -3.418603   17.979155    1.993451
 H    9.526013    5.297845   12.578562
 C   -4.920424   20.075948   17.579678
 C   -0.314806   24.908718   15.251070
 C   11.027833    3.201053   -3.007664
 C   11.259975   23.880573    6.418972
 H    8.199748   25.618667    7.439013
 C   10.197367   25.453167    7.833915
 C   -4.089958   -2.176167    6.738099
 H   -2.092339   -2.341666    7.133001
 C   -5.152566   -0.603572    8.153042
 C   11.169374   11.567272    5.729716
 C   -5.061965   11.709728    8.842298
 C   -2.644194   -1.148487   15.469650
 S   -2.083208    0.379647   17.796655
 S    8.190617   22.897353   -3.224641
 C    8.751603   24.425488   -0.897636
 C   11.548695   22.162498   -0.447361
 C   11.712329   23.205773    1.556291
 C   -5.604920    0.071228   13.015723
 C   -5.441286    1.114503   15.019375
 H   12.048940    0.137335    6.165419
 C   11.351028    1.518824    7.440470
 H   10.222392    2.802551    8.546486
 H   -4.114983   20.474449    6.025528
 C   -5.243619   21.758177    7.131544
 H   -5.941531   23.139666    8.406595
 H   -2.993323   -1.249975    2.953747
 C   -4.334697    0.032588    3.788724
 H   -5.287412    1.461795    4.862681
 C   10.442106   23.244413   10.783290
 H   11.394821   21.815205    9.709333
 H    9.100732   24.526975   11.618267
 N    1.255433   11.395255   17.509732
 C    2.594831   13.013008   16.348342
 C    3.512578   10.263993   -1.776328
 N    4.851976   11.881745   -2.937718
 H   -5.287412   24.738796    4.862681
 H    0.308393   26.079552    8.546486
 H    5.799016   -2.802551    6.025528
 H   11.394821   -1.461795    9.709333
 C   -1.113834   -3.201053    3.007664
 C    7.221243   26.478053   11.564350
 H    4.159115   25.195025   16.880221
 H    4.705745   26.263440   15.823750
 H    5.702080   25.185714   16.457633
 C    4.592375   -3.740846   -0.725686
 H    3.789058   -2.769963    0.865578
 H    5.703487   -4.364438   -2.311121
 C    5.321624   27.017847    0.725686
 H    4.210513   27.641438    2.311121
 H    6.124941   26.046964   -0.865578
 C    0.785785   -3.740846   13.846327
 H   -0.017532   -2.769963   15.437592
 H    1.896896   -4.364438   12.260892
 C   -5.787384   19.423260   16.682041
 C   -4.932626   19.769622   18.950904
 C   -0.439151   25.918009   16.193879
 C    0.718200   24.954574   14.321375
 C   11.040035    3.507379   -4.378890
 C   11.894793    3.853740   -2.110028
 H   12.048940   23.414335    6.165419
 C   11.351028   24.795824    7.440470
 H   10.222392   26.079552    8.546486
 H   -4.114983   -2.802551    6.025528
 C   -5.243619   -1.518824    7.131544
 H   -5.941531   -0.137335    8.406595
 C   11.805308   10.490013    6.388371
 S   11.244321   12.018148    4.061366
 S   -5.136912   11.258853   10.510648
 C   -5.697899   12.786988    8.183643
 C   -2.171895   -1.114503   14.124653
 C   -3.539041   -2.118207   15.995700
 C    9.646450   25.395207   -1.423686
 C    8.279304   24.391503    0.447361
 C   11.234455   21.212331   -1.570863
 N   12.372464   23.171788   -0.636797
 N   12.472763   23.817026    0.595995
 S   11.637382   23.656648    3.224641
 S   -5.529973   -0.379647   11.347373
 N   -6.365354   -0.540026   13.976019
 N   -6.265055    0.105212   15.208810
 C   -5.127046    2.064670   16.142877
 H   12.183078    1.696893    7.864516
 H   -6.075669   21.580107    6.707498
 H   -5.080617   -0.232770    3.262674
 H   11.188026   23.509770   11.309340
 C    2.331351   11.064024   18.241247
 H    2.660048   13.698515   15.692602
 C    3.702340   12.659430   17.122116
 C    2.405069   10.617571   -2.550102
 H    3.447361    9.578485   -1.120588
 C    3.776058   12.212976   -3.669233
 C   -1.980793   -3.853740    2.110028
 C   -1.126035   -3.507379    4.378890
 C    7.233444   26.784379   10.193124
 C    8.088202   27.130741   12.461986
 H    3.967024   -4.455218   -0.741716
 H    5.946976   27.732218    0.741716
 H    0.160433   -4.455218   13.830298
 C   -6.645035   18.436548   17.164375
 H   -5.788328   19.652772   15.759633
 C   -5.810494   18.779419   19.415751
 N   -4.074472   20.571282   19.768394
 H   -1.154052   25.897991   16.820476
 C    0.481797   26.961517   16.224480
 H    0.807060   24.268600   13.670006
 C    1.619090   26.012281   14.349062
 N   10.181881    2.705718   -5.196380
 C   11.917903    4.497582   -4.843737
 H   11.895737    3.624229   -1.187619
 C   12.752444    4.840452   -2.592361
 H   12.183078   24.973894    7.864516
 H   -6.075669   -1.696893    6.707498
 C   11.333008   10.523998    7.733368
 C   12.700155    9.520293    5.862321
 C   -6.592746   13.756707    8.709693
 C   -5.225599   12.753003    6.838646
 C   -2.486135   -2.064670   13.001151
 N   -1.348126   -0.105212   13.935217
 H   -3.802024   -2.818845   15.408447
 N   -4.031767   -2.145441   17.194976
 N   10.139176   25.422442   -2.622963
 H    9.909433   26.095845   -0.836433
 N    7.455535   23.382212    0.636797
 C    8.593544   25.341670    1.570863
 H   10.319329   21.368287   -1.885619
 H   11.315663   20.290561   -1.251736
 H   11.862293   21.358976   -2.308207
 C   13.405784   24.908718    0.679056
 C   -7.298375   -1.631718   13.892958
 H   -5.754884    1.918025   16.880221
 H   -5.208254    2.986439   15.823750
 H   -4.211920    1.908714   16.457633
 H    2.240437   10.388525   18.904274
 C    3.581811   11.671088   18.069297
 H    4.534526   13.100296   16.995340
 C    2.525598   11.605913   -3.497283
 H    1.572883   10.176705   -2.423326
 H    3.866972   12.888475   -4.332260
 C   -2.838444   -4.840452    2.592361
 H   -1.981738   -3.624229    1.187619
 C   -2.003904   -4.497582    4.843737
 N   -0.267882   -2.705718    5.196380
 N    6.375291   25.982719    9.375634
 C    8.111313   27.774582    9.728276
 H    8.089147   26.901229   13.384395
 C    8.945853   28.117453   11.979653
 H   -7.225194   17.979155   16.565465
 C   -6.655572   18.119748   18.506457
 H   -5.833724   18.556425   20.339617
 C    1.515034   27.017847   15.297700
 H    0.403922   27.641438   16.883135
 H    2.318351   26.046964   13.706436
 H   11.941133    4.720576   -5.767603
 C   12.762981    5.157252   -3.934444
 H   13.332603    5.297845   -1.993451
 N   10.509239   11.533288    7.922804
 C   11.647248    9.573830    8.856870
 H   12.963137    8.819655    6.449573
 N   13.192881    9.493059    4.663044
 N   -7.085472   13.783941    9.908969
 H   -6.855728   14.457345    8.122440
 C   -5.539839   13.703170    5.715144
 N   -4.401830   11.743712    6.649210
 H   -3.401261   -1.908714   12.686395
 H   -2.404927   -2.986439   13.320278
 H   -1.858297   -1.918025   12.263807
 C   -4.920424   -3.201053   17.579678
 C   11.027833   26.478053   -3.007664
 H    7.965706   25.195025    2.308207
 H    8.512336   26.263440    1.251736
 H    9.508670   25.185714    1.885619
 C   13.281439   25.918009    1.621865
 C   14.438790   24.954574   -0.250639
 C   -8.331381   -1.677573   14.822652
 C   -7.174030   -2.641009   12.950149
 H    4.327731   11.405730   18.595347
 H    1.779678   11.871270   -4.023333
 H   -3.418603   -5.297845    1.993451
 C   -2.848981   -5.157252    3.934444
 H   -2.027134   -4.720576    5.767603
 H    8.134543   27.997576    8.804411
 C    8.956390   28.434253   10.637570
 H    9.526013   28.574846   12.578562
 H   -7.243408   17.443784   18.821213
 H    2.140385   27.732218   15.313729
 H   13.350817    5.833216   -4.249199
 H   11.566040    8.652061    8.537743
 H   11.019411    9.720476    9.594214
 H   12.562375    9.729786    9.171626
 C   14.081538    8.437447    4.278343
 C   -7.974129   14.839553   10.293671
 H   -6.454966   13.547214    5.400388
 H   -4.912001   13.556525    4.977800
 H   -5.458631   14.624940    6.034271
 C   -5.787384   -3.853740   16.682041
 C   -4.932626   -3.507379   18.950904
 C   11.040035   26.784379   -4.378890
 C   11.894793   27.130741   -2.110028
 H   12.566538   25.897991    2.248462
 C   14.202387   26.961517    1.652467
 H   14.527650   24.268600   -0.902008
 C   15.339680   26.012281   -0.222951
 C   -9.232271   -2.735281   14.794965
 H   -8.420241   -0.991600   15.474022
 C   -8.094978   -3.684517   12.919547
 H   -6.459129   -2.620991   12.323552
 H   -3.436818   -5.833216    4.249199
 H    9.544227   29.110217   10.322815
 C   14.093739    8.131122    2.907117
 C   14.948497    7.784760    5.175979
 C   -8.841088   15.492241    9.396035
 C   -7.986330   15.145879   11.664897
 C   -6.645035   -4.840452   17.164375
 H   -5.788328   -3.624229   15.759633
 C   -5.810494   -4.497582   19.415751
 N   -4.074472   -2.705718   19.768394
 N   10.181881   25.982719   -5.196380
 C   11.917903   27.774582   -4.843737
 H   11.895737   26.901229   -1.187619
 C   12.752444   28.117453   -2.592361
 C   15.235624   27.017847    0.725686
 H   14.124512   27.641438    2.311121
 H   16.038941   26.046964   -0.865578
 C   -9.128215   -3.740846   13.846327
 H   -9.931532   -2.769963   15.437592
 H   -8.017103   -4.364438   12.260892
 N   13.235586    8.932782    2.089627
 C   14.971608    7.140918    2.442270
 C   15.806148    6.798048    4.693646
 H   14.949442    8.014271    6.098388
 H   -8.842033   15.262729    8.473626
 C   -9.698739   16.478952    9.878368
 C   -8.864199   16.136082   12.129744
 N   -7.128177   14.344219   12.482387
 H   -7.225194   -5.297845   16.565465
 C   -6.655572   -5.157252   18.506457
 H   -5.833724   -4.720576   20.339617
 H   11.941133   27.997576   -5.767603
 C   12.762981   28.434253   -3.934444
 H   13.332603   28.574846   -1.993451
 H   15.860975   27.732218    0.741716
 H   -9.753566   -4.455218   13.830298
 H   14.994838    6.917924    1.518404
 C   15.816685    6.481248    3.351563
 H   16.386308    6.340655    5.292556
 H  -10.278899   16.936346    9.279458
 C   -9.709276   16.795752   11.220451
 H   -8.887429   16.359076   13.053610
 H   -7.243408   -5.833216   18.821213
 H   13.350817   29.110217   -4.249199
 H   16.404522    5.805284    3.036808
 H  -10.297113   17.471716   11.535206
Cu    0.109168   -0.954590    4.178816
Cu   10.023167   22.322411    4.178816
Cu   -3.915758    0.954590   10.393197
Cu    5.998241   24.231590   10.393197
