35
-2.0942299583072895e+03 frame 38   xyz file generated by TeraChem
    Ni -1.7929767370224 0.1502419114112854 1.56565523147583
N -3.259181499481201 -0.9874219298362732 1.5549662113189697
N -0.7292637228965759 -1.3619773387908936 1.7265263795852661
O -0.3213520348072052 1.2591924667358398 1.472605586051941
O -2.8610494136810303 1.648763656616211 1.5046089887619019
C -4.516711711883545 -0.6730023622512817 1.5721044540405273
C 1.8650987148284912 2.03017258644104 1.229459524154663
C 0.9234839677810669 0.976616382598877 1.3934153318405151
C 1.4455713033676147 -0.3556075394153595 1.4656996726989746
C 2.83567476272583 -0.5697828531265259 1.3679932355880737
C 3.704892158508301 0.473169207572937 1.2023617029190063
C 3.20548939704895 1.782460331916809 1.1355421543121338
C 0.5625259876251221 -1.444709300994873 1.659671664237976
C -6.073553562164307 3.232668161392212 1.5922865867614746
C -4.7191338539123535 3.0574965476989746 1.5522412061691284
C -4.134796142578125 1.7606867551803589 1.550790786743164
C -5.032624244689941 0.6455022096633911 1.5932475328445435
C -6.424178123474121 0.8674812316894531 1.6332828998565674
C -6.942706108093262 2.132791757583618 1.6338087320327759
C -1.494186282157898 -2.562790632247925 2.0338094234466553
C -2.8905789852142334 -2.3922886848449707 1.4362742900848389
H -5.249136447906494 -1.4815921783447266 1.5591487884521484
H 1.472895622253418 3.0343010425567627 1.1787489652633667
H 3.206040143966675 -1.5843507051467896 1.424976110458374
H 3.8937549591064453 2.60591459274292 1.0071520805358887
H 1.0219447612762451 -2.43097186088562 1.7719428539276123
H -6.4856462478637695 4.232125282287598 1.591077208518982
H -4.045344352722168 3.899630546569824 1.5201585292816162
H -7.083270072937012 0.010061412118375301 1.6634727716445923
H -1.571626901626587 -2.6561713218688965 3.1243913173675537
H -1.0021880865097046 -3.4627091884613037 1.6420557498931885
H -3.619964361190796 -3.0401182174682617 1.9370920658111572
H -2.8680670261383057 -2.6541547775268555 0.37017154693603516
H 4.7674102783203125 0.2985207140445709 1.1256804466247559
H -8.010394096374512 2.2890713214874268 1.6645954847335815
