606

Zn    5.566599    2.097436    5.262565
Zn   -3.753751    6.291636    5.262565
Zn   14.886948    6.291636    5.262565
 O    4.320788    1.264216    6.460851
 O    6.812410    1.264216    4.064279
 O   13.641137    5.458416    6.460851
 O   -2.507940    5.458416    4.064279
 O   -0.967011    2.654593    7.347803
 O   12.100209    2.654593    3.177326
 O    8.353338    6.848793    7.347803
 O    2.779859    6.848793    3.177326
 O   -0.937610    8.307955   10.399460
 O   12.070807    8.307955    0.125670
 O    8.382740    4.113755   10.399460
 O    2.750457    4.113755    0.125670
 O    0.339382    6.746119    8.784799
 O   10.793815    6.746119    1.740330
 O    9.659732    2.551919    8.784799
 O    1.473466    2.551919    1.740330
 N    4.217160    3.120820    4.197948
 N    6.916037    3.120820    6.327182
 N   13.537510    7.315020    4.197948
 N   -2.404312    7.315020    6.327182
 C    3.069497    1.666691    6.601888
 C    8.063701    1.666691    3.923242
 C   12.389846    5.860891    6.601888
 C   -1.256649    5.860891    3.923242
 C    2.305010    1.119767    7.673135
 C    8.828187    1.119767    2.851994
 C   11.625360    5.313968    7.673135
 C   -0.492163    5.313968    2.851994
 H    2.714549    0.489883    8.254859
 H    8.418649    0.489883    2.270270
 H   12.034898    4.684083    8.254859
 H   -0.901701    4.684083    2.270270
 C    1.000590    1.471829    7.891532
 C   10.132607    1.471829    2.633598
 C   10.320940    5.666029    7.891532
 C    0.812258    5.666029    2.633598
 H    0.528066    1.093009    8.623239
 H   10.605131    1.093009    1.901891
 H    9.848416    5.287209    8.623239
 H    1.284781    5.287209    1.901891
 C    0.356294    2.383564    7.048574
 C   10.776903    2.383564    3.476555
 C    9.676644    6.577764    7.048574
 C    1.456553    6.577764    3.476555
 C    1.054680    2.933759    6.000482
 C   10.078518    2.933759    4.524648
 C   10.375029    7.127959    6.000482
 C    0.758168    7.127959    4.524648
 H    0.622291    3.554165    5.425704
 H   10.510906    3.554165    5.099425
 H    9.942641    7.748365    5.425704
 H    1.190557    7.748365    5.099425
 C    2.412029    2.591429    5.761456
 C    8.721169    2.591429    4.763674
 C   11.732378    6.785629    5.761456
 C   -0.599181    6.785629    4.763674
 C   -1.644708    3.521450    6.442958
 C   12.777906    3.521450    4.082171
 C    7.675641    7.715651    6.442958
 C    3.457556    7.715651    4.082171
 H   -2.570169    3.643921    6.739240
 H   13.703367    3.643921    3.785889
 H    6.750180    7.838121    6.739240
 H    4.383017    7.838121    3.785889
 H   -1.638664    3.127195    5.545691
 H   12.771861    3.127195    4.979439
 H    7.681686    7.321396    5.545691
 H    3.451511    7.321396    4.979439
 H   -1.191448    4.390489    6.421381
 H   12.324645    4.390489    4.103748
 H    8.128902    0.196289    6.421381
 H    3.004295    0.196289    4.103748
 C    2.993844    3.223075    4.596640
 C    8.139354    3.223075    5.928490
 C   12.314194    7.417275    4.596640
 C   -1.180996    7.417275    5.928490
 H    2.418381    3.767230    4.073225
 H    8.714817    3.767230    6.451904
 H   11.738730    7.961430    4.073225
 H   -0.605533    7.961430    6.451904
 C    4.593600    3.779478    2.939774
 C    6.539598    3.779478    7.585356
 C   13.913949    7.973678    2.939774
 C   -2.780752    7.973678    7.585356
 H    3.848072    4.351063    2.628125
 H    7.285126    4.351063    7.897005
 H   13.168421    0.156863    2.628125
 H   -2.035224    0.156863    7.897005
 H    4.767426    3.094481    2.246063
 H    6.365772    3.094481    8.279067
 H   14.087775    7.288681    2.246063
 H   -2.954578    7.288681    8.279067
 C    5.843575    4.634088    3.137962
 C    5.289622    4.634088    7.387168
 C   15.163925    0.439888    3.137962
 C   -4.030728    0.439888    7.387168
 H    5.630311    5.391225    3.738526
 H    5.502887    5.391225    6.786604
 H   14.950661    1.197025    3.738526
 H   -3.817463    1.197025    6.786604
 H    6.546000    4.089345    3.573282
 H    4.587197    4.089345    6.951848
 H   15.866350    8.283545    3.573282
 H   -4.733152    8.283545    6.951848
 C    6.369735    5.170861    1.826426
 C    4.763462    5.170861    8.698704
 C   15.690085    0.976661    1.826426
 C   -4.556887    0.976661    8.698704
 C    6.192047    6.510741    1.474992
 C    4.941150    6.510741    9.050138
 C   15.512397    2.316541    1.474992
 C   -4.379199    2.316541    9.050138
 H    5.724202    7.089876    2.065030
 H    5.408995    7.089876    8.460099
 H   15.044552    2.895676    2.065030
 H   -3.911354    2.895676    8.460099
 C    6.686695    7.010438    0.280284
 C    4.446502    7.010438   10.244845
 C   16.007045    2.816238    0.280284
 C   -4.873847    2.816238   10.244845
 C   -0.127491    6.162119    9.933512
 C   11.260689    6.162119    0.591618
 C    9.192858    1.967919    9.933512
 C    1.940339    1.967919    0.591618
 C    0.038514    4.824001   10.264738
 C   11.094684    4.824001    0.260392
 C    9.358863    0.629801   10.264738
 C    1.774334    0.629801    0.260392
 H    0.492031    4.238658    9.669437
 H   10.641166    4.238658    0.855693
 H    9.812381    0.044458    9.669437
 H    1.320816    0.044458    0.855693
 C    7.045404    4.339655    0.949472
 C    4.087794    4.339655    9.575658
 C   16.365754    0.145455    0.949472
 C   -5.232556    0.145455    9.575658
 H    7.170207    3.424984    1.174604
 H    3.962990    3.424984    9.350525
 H   16.490557    7.619184    1.174604
 H   -5.357360    7.619184    9.350525
 C    5.693273    0.762338    0.621930
 C    5.439925    0.762338    9.903200
 C   15.013622    4.956538    0.621930
 C   -3.880425    4.956538    9.903200
 H    5.700287    1.664259    0.237868
 H    5.432911    1.664259   10.287262
 H   15.020637    5.858459    0.237868
 H   -3.887439    5.858459   10.287262
 H    5.993999    0.801931    1.553509
 H    5.139198    0.801931    8.971621
 H   15.314349    4.996131    1.553509
 H   -4.181152    4.996131    8.971621
 H    4.783701    0.400127    0.587302
 H    6.349497    0.400127    9.937827
 H   14.104050    4.594327    0.587302
 H   -2.970853    4.594327    9.937827
 C    1.272484    6.006933    8.021517
 C    9.860713    6.006933    2.503612
 C   10.592834    1.812733    8.021517
 C    0.540364    1.812733    2.503612
 H    1.534720    6.526175    7.232869
 H    9.598477    6.526175    3.292260
 H   10.855070    2.331975    7.232869
 H    0.278128    2.331975    3.292260
 H    0.864562    5.162222    7.735970
 H   10.268636    5.162222    2.789159
 H   10.184911    0.968022    7.735970
 H    0.948286    0.968022    2.789159
 H    2.065455    5.819033    8.566403
 H    9.067742    5.819033    1.958727
 H   11.385805    1.624833    8.566403
 H   -0.252607    1.624833    1.958727
 O   -4.999562    5.458416    6.460851
 N   -5.103189    7.315020    4.197948
 O   16.132759    5.458416    4.064279
 N   16.236387    7.315020    6.327182
 C   -0.820807    7.010438   10.805414
 C   -1.814229    9.150738   11.147059
 C   11.954004    7.010438   -0.280284
 C   12.947427    9.150738   -0.621930
 C    8.499543    2.816238   10.805414
 C    7.506120    4.956538   11.147059
 C    2.633655    2.816238   -0.280284
 C    3.627077    4.956538   -0.621930
 H    8.128902    8.584689    6.421381
 H    3.004295    8.584689    4.103748
 H   13.168421    8.545263    2.628125
 C   15.163925    8.828288    3.137962
 C   -4.030728    8.828288    7.387168
 H   -2.035224    8.545263    7.897005
 C   13.913949   -0.414722    2.939774
 H   15.866350   -0.104855    3.573282
 H   -4.733152   -0.104855    6.951848
 C   -2.780752   -0.414722    7.585356
 C    7.380011    6.162119   -0.591618
 O    6.569892    8.307955   -0.125670
 C    3.753187    6.162119   11.116747
 O    4.563305    8.307955   10.650800
 C   16.700360    1.967919   -0.591618
 O   15.890242    4.113755   -0.125670
 C   -5.567163    1.967919   11.116747
 O   -4.757045    4.113755   10.650800
 C   -0.462098    4.339655   11.474601
 C   11.595296    4.339655   -0.949472
 C    8.858252    0.145455   11.474601
 C    2.274946    0.145455   -0.949472
 C    7.546015    4.824001   -0.260392
 C    3.587182    4.824001   10.785521
 H   16.490557   -0.769216    1.174604
 C   16.866365    0.629801   -0.260392
 H   -5.357360   -0.769216    9.350525
 C   -5.733168    0.629801   10.785521
 O    6.569892   -0.080445   -0.125670
 O    4.563305   -0.080445   10.650800
 C   -6.250853    5.860891    6.601888
 C   -4.726750    7.973678    2.939774
 C   -6.326506    7.417275    4.596640
 C   17.384050    5.860891    3.923242
 C   17.459703    7.417275    5.928490
 C   15.859947    7.973678    7.585356
 C   -1.315455    6.510741   12.000121
 H   -1.807215   10.052659   10.762998
 H   -2.723801    8.788527   11.112432
 H   -1.513503    9.190331   12.078639
 C   12.448652    6.510741   -1.474992
 H   12.646700    9.190331   -1.553509
 H   12.940412   10.052659   -0.237868
 H   13.856999    8.788527   -0.587302
 C    8.004895    2.316541   12.000121
 H    7.513135    5.858459   10.762998
 H    6.596548    4.594327   11.112432
 H    7.806847    4.996131   12.078639
 C    3.128303    2.316541   -1.474992
 H    3.326350    4.996131   -1.553509
 H    3.620063    5.858459   -0.237868
 H    4.536649    4.594327   -0.587302
 C   15.690085    9.365061    1.826426
 H   14.950661    9.585425    3.738526
 H   -3.817463    9.585425    6.786604
 C   -4.556887    9.365061    8.698704
 H   14.087775   -1.099719    2.246063
 N   13.537510   -1.073380    4.197948
 N   -2.404312   -1.073380    6.327182
 H   -2.954578   -1.099719    8.279067
 O    7.846884    6.746119   -1.740330
 C    5.693273    9.150738    0.621930
 O    3.286313    6.746119   12.265460
 C    5.439925    9.150738    9.903200
 O   17.167234    2.551919   -1.740330
 O   -6.034036    2.551919   12.265460
 H   -0.337295    3.424984   11.699734
 C   -1.137767    5.170861   12.351555
 H   11.470492    3.424984   -1.174604
 C   12.270964    5.170861   -1.826426
 H    8.983055   -0.769216   11.699734
 C    8.182583    0.976661   12.351555
 H    2.150142   -0.769216   -1.174604
 C    2.950615    0.976661   -1.826426
 H    7.999533    4.238658   -0.855693
 H    3.133664    4.238658   11.380823
 H   17.319883    0.044458   -0.855693
 H   -6.186685    0.044458   11.380823
 C    6.686695   -1.377962    0.280284
 C    4.446502   -1.377962   10.244845
 C   -6.908321    6.785629    5.761456
 C   -7.015339    5.313968    7.673135
 H   -4.552924    7.288681    2.246063
 H   -5.472278    8.545263    2.628125
 C   -3.476774    8.828288    3.137962
 H   -6.901969    7.961430    4.073225
 C   18.148537    5.313968    2.851994
 C   18.041518    6.785629    4.763674
 H   18.035166    7.961430    6.451904
 C   14.609972    8.828288    7.387168
 H   15.686121    7.288681    8.279067
 H   16.605475    8.545263    7.897005
 H   -1.783300    7.089876   12.590160
 H   12.916497    7.089876   -2.065030
 H    7.537050    2.895676   12.590160
 H    3.596148    2.895676   -2.065030
 C   16.365754    8.533855    0.949472
 C   15.512397   10.704941    1.474992
 C   -5.232556    8.533855    9.575658
 C   -4.379199   10.704941    9.050138
 C   12.314194   -0.971125    4.596640
 C   -1.180996   -0.971125    5.928490
 C    8.779986    6.006933   -2.503612
 H    5.700287   10.052659    0.237868
 H    4.783701    8.788527    0.587302
 H    5.993999    9.190331    1.553509
 C    2.353211    6.006933   13.028742
 H    5.139198    9.190331    8.971621
 H    5.432911   10.052659   10.287262
 H    6.349497    8.788527    9.937827
 C   18.100336    1.812733   -2.503612
 C   -6.967138    1.812733   13.028742
 C   -1.663927    4.634088   13.663092
 C   12.797124    4.634088   -3.137962
 C    7.656423    0.439888   13.663092
 C    3.476774    0.439888   -3.137962
 C    7.380011   -2.226281   -0.591618
 C    6.192047   -1.877659    1.474992
 C    4.941150   -1.877659    9.050138
 C    3.753187   -2.226281   11.116747
 C   -8.265670    7.127959    6.000482
 C   -8.319760    5.666029    7.891532
 H   -6.605801    4.684083    8.254859
 H   -2.774350    8.283545    3.573282
 C   -2.950615    9.365061    1.826426
 H   -3.690039    9.585425    3.738526
 H   17.738999    4.684083    2.270270
 C   19.452957    5.666029    2.633598
 C   19.398867    7.127959    4.524648
 H   13.907547    8.283545    6.951848
 H   14.823236    9.585425    6.786604
 C   14.083812    9.365061    8.698704
 C   16.866365    9.018201   -0.260392
 C   16.007045   11.204638    0.280284
 H   15.044552   11.284076    2.065030
 C   -5.733168    9.018201   10.785521
 H   -3.911354   11.284076    8.460099
 C   -4.873847   11.204638   10.244845
 H   11.738730   -0.426970    4.073225
 C   11.732378   -1.602772    5.761456
 C   -0.599181   -1.602772    4.763674
 H   -0.605533   -0.426970    6.451904
 H    8.372064    5.162222   -2.789159
 H    9.042222    6.526175   -3.292260
 H    9.572957    5.819033   -1.958727
 H    1.560240    5.819033   12.483856
 H    2.761134    5.162222   13.314289
 H    2.090975    6.526175   13.817390
 H   17.692413    0.968022   -2.789159
 H   18.362572    2.331975   -3.292260
 H   18.893307    1.624833   -1.958727
 H   -7.760109    1.624833   12.483856
 H   -6.559216    0.968022   13.314289
 H   -7.229374    2.331975   13.817390
 C   -2.913902    3.779478   13.464903
 H   -0.961502    4.089345   14.098411
 H   -1.877191    5.391225   14.263656
 H   12.094699    4.089345   -3.573282
 H   13.010389    5.391225   -3.738526
 C   14.047100    3.779478   -2.939774
 C    6.406447   -0.414722   13.464903
 H    8.358848   -0.104855   14.098411
 H    7.443159    1.197025   14.263656
 H    2.774350   -0.104855   -3.573282
 H    3.690039    1.197025   -3.738526
 C    4.726750   -0.414722   -2.939774
 O    7.846884   -1.642281   -1.740330
 C    7.546015   -3.564399   -0.260392
 C    6.369735   -3.217539    1.826426
 H    5.724202   -1.298524    2.065030
 C    4.763462   -3.217539    8.698704
 H    5.408995   -1.298524    8.460099
 C    3.587182   -3.564399   10.785521
 O    3.286313   -1.642281   12.265460
 H   -8.698059    7.748365    5.425704
 C   -8.964055    6.577764    7.048574
 H   -8.792283    5.287209    8.623239
 C   -2.274946    8.533855    0.949472
 C   -3.128303   10.704941    1.474992
 H   19.925481    5.287209    1.901891
 C   20.097253    6.577764    3.476555
 H   19.831256    7.748365    5.099425
 C   13.408143    8.533855    9.575658
 C   14.261500   10.704941    9.050138
 C   16.700360   10.356319   -0.591618
 H   17.319883    8.432858   -0.855693
 O   15.890242   12.502155   -0.125670
 H   -6.186685    8.432858   11.380823
 C   -5.567163   10.356319   11.116747
 O   -4.757045   12.502155   10.650800
 C   10.375029   -1.260441    6.000482
 C   12.389846   -2.527509    6.601888
 C   -1.256649   -2.527509    3.923242
 C    0.758168   -1.260441    4.524648
 H   -2.740076    3.094481   12.771192
 H   -3.659430    4.351063   13.153254
 N   -3.290342    3.120820   14.723077
 N   14.423539    3.120820   -4.197948
 H   13.873274    3.094481   -2.246063
 H   14.792628    4.351063   -2.628125
 H    6.580274   -1.099719   12.771192
 H    5.660919    0.156863   13.153254
 N    6.030008   -1.073380   14.723077
 N    5.103189   -1.073380   -4.197948
 H    4.552924   -1.099719   -2.246063
 H    5.472278    0.156863   -2.628125
 C    8.779986   -2.381467   -2.503612
 H    7.999533   -4.149742   -0.855693
 C    7.045404   -4.048745    0.949472
 C    5.843575   -3.754312    3.137962
 C    5.289622   -3.754312    7.387168
 C    4.087794   -4.048745    9.575658
 H    3.133664   -4.149742   11.380823
 C    2.353211   -2.381467   13.028742
 O  -10.287361    6.848793    7.347803
 H   -2.150142    7.619184    1.174604
 C   -1.774334    9.018201   -0.260392
 C   -2.633655   11.204638    0.280284
 H   -3.596148   11.284076    2.065030
 O   21.420559    6.848793    3.177326
 H   13.283340    7.619184    9.350525
 C   12.907532    9.018201   10.785521
 H   14.729345   11.284076    8.460099
 C   13.766852   11.204638   10.244845
 O   17.167234   10.940319   -1.740330
 C   15.013622   13.344938    0.621930
 O   -6.034036   10.940319   12.265460
 C   -3.880425   13.344938    9.903200
 H    9.942641   -0.640035    5.425704
 C    9.676644   -1.810636    7.048574
 O   13.641137   -2.929984    6.460851
 C   11.625360   -3.074433    7.673135
 C   -0.492163   -3.074433    2.851994
 O   -2.507940   -2.929984    4.064279
 C    1.456553   -1.810636    3.476555
 H    1.190557   -0.640035    5.099425
 C   -4.513658    3.223075   15.121769
 C   15.646856    3.223075   -4.596640
 C    4.806692   -0.971125   15.121769
 C    6.326506   -0.971125   -4.596640
 H    8.372064   -3.226179   -2.789159
 H    9.042222   -1.862225   -3.292260
 H    9.572957   -2.569367   -1.958727
 H    7.170207   -4.963416    1.174604
 C    4.593600   -4.608923    2.939774
 H    6.546000   -4.299055    3.573282
 H    5.630311   -2.997175    3.738526
 H    4.587197   -4.299055    6.951848
 H    5.502887   -2.997175    6.786604
 C    6.539598   -4.608923    7.585356
 H    3.962990   -4.963416    9.350525
 H    1.560240   -2.569367   12.483856
 H    2.761134   -3.226179   13.314289
 H    2.090975   -1.862225   13.817390
 C  -10.965058    7.715651    6.442958
 C   -1.940339   10.356319   -0.591618
 H   -1.320816    8.432858   -0.855693
 O   -2.750457   12.502155   -0.125670
 C   22.098255    7.715651    4.082171
 H   12.454014    8.432858   11.380823
 C   13.073536   10.356319   11.116747
 O   13.883655   12.502155   10.650800
 C   18.100336   10.201133   -2.503612
 H   15.020637   14.246859    0.237868
 H   14.104050   12.982727    0.587302
 H   15.314349   13.384531    1.553509
 C   -6.967138   10.201133   13.028742
 H   -4.181152   13.384531    8.971621
 H   -3.887439   14.246859   10.287262
 H   -2.970853   12.982727    9.937827
 O    8.353338   -1.539607    7.347803
 C   10.320940   -2.722371    7.891532
 H   12.034898   -3.704317    8.254859
 H   -0.901701   -3.704317    2.270270
 C    0.812258   -2.722371    2.633598
 O    2.779859   -1.539607    3.177326
 H   -5.089121    3.767230   14.598355
 C   -5.095473    2.591429   16.286585
 C   16.228671    2.591429   -5.761456
 H   16.222319    3.767230   -4.073225
 H    4.231228   -0.426970   14.598355
 C    4.224876   -1.602772   16.286585
 C    6.908321   -1.602772   -5.761456
 H    6.901969   -0.426970   -4.073225
 H    4.767426   -5.293919    2.246063
 H    3.848072   -4.037337    2.628125
 N    4.217160   -5.267580    4.197948
 N    6.916037   -5.267580    6.327182
 H    6.365772   -5.293919    8.279067
 H    7.285126   -4.037337    7.897005
 H  -11.890519    7.838121    6.739240
 H  -10.959013    7.321396    5.545691
 H  -10.511797    8.584689    6.421381
 O   -1.473466   10.940319   -1.740330
 C   -3.627077   13.344938    0.621930
 H   21.644995    8.584689    4.103748
 H   23.023717    7.838121    3.785889
 H   22.092211    7.321396    4.979439
 O   12.606663   10.940319   12.265460
 C   14.760274   13.344938    9.903200
 H   17.692413    9.356422   -2.789159
 H   18.362572   10.720375   -3.292260
 H   18.893307   10.013233   -1.958727
 H   -7.760109   10.013233   12.483856
 H   -6.559216    9.356422   13.314289
 H   -7.229374   10.720375   13.817390
 C    7.675641   -0.672750    6.442958
 H    9.848416   -3.101192    8.623239
 H    1.284781   -3.101192    1.901891
 C    3.457556   -0.672750    4.082171
 C   -6.452822    2.933759   16.525611
 C   -4.438005    1.666691   17.127017
 C   15.571203    1.666691   -6.601888
 C   17.586020    2.933759   -6.000482
 C    2.867527   -1.260441   16.525611
 C    4.882344   -2.527509   17.127017
 C    6.250853   -2.527509   -6.601888
 C    8.265670   -1.260441   -6.000482
 C    2.993844   -5.165325    4.596640
 C    8.139354   -5.165325    5.928490
 C   -0.540364   10.201133   -2.503612
 H   -3.620063   14.246859    0.237868
 H   -4.536649   12.982727    0.587302
 H   -3.326350   13.384531    1.553509
 C   11.673561   10.201133   13.028742
 H   14.459548   13.384531    8.971621
 H   14.753260   14.246859   10.287262
 H   15.669846   12.982727    9.937827
 H    6.750180   -0.550279    6.739240
 H    7.681686   -1.067005    5.545691
 H    4.383017   -0.550279    3.785889
 H    3.451511   -1.067005    4.979439
 H   -6.885211    3.554165   15.950834
 C   -7.151208    2.383564   17.573704
 O   -3.186714    1.264216   16.985980
 C   -5.202492    1.119767   18.198265
 C   16.335689    1.119767   -7.673135
 O   14.319912    1.264216   -6.460851
 C   18.284405    2.383564   -7.048574
 H   18.018408    3.554165   -5.425704
 H    2.435139   -0.640035   15.950834
 C    2.169142   -1.810636   17.573704
 O    6.133635   -2.929984   16.985980
 C    4.117858   -3.074433   18.198265
 C    7.015339   -3.074433   -7.673135
 O    4.999562   -2.929984   -6.460851
 C    8.964055   -1.810636   -7.048574
 H    8.698059   -0.640035   -5.425704
 H    2.418381   -4.621170    4.073225
 C    2.412029   -5.796972    5.761456
 C    8.721169   -5.796972    4.763674
 H    8.714817   -4.621170    6.451904
 H   -0.948286    9.356422   -2.789159
 H   -0.278128   10.720375   -3.292260
 H    0.252607   10.013233   -1.958727
 H   10.880590   10.013233   12.483856
 H   12.081483    9.356422   13.314289
 H   11.411325   10.720375   13.817390
 O   -8.474513    2.654593   17.872933
 C   -6.506912    1.471829   18.416661
 H   -4.792953    0.489883   18.779989
 H   15.926151    0.489883   -8.254859
 C   17.640109    1.471829   -7.891532
 O   19.607711    2.654593   -7.347803
 O    0.845836   -1.539607   17.872933
 C    2.813438   -2.722371   18.416661
 H    4.527396   -3.704317   18.779989
 H    6.605801   -3.704317   -8.254859
 C    8.319760   -2.722371   -7.891532
 O   10.287361   -1.539607   -7.347803
 C    1.054680   -5.454641    6.000482
 C    3.069497   -6.721709    6.601888
 C    8.063701   -6.721709    3.923242
 C   10.078518   -5.454641    4.524648
 C   -9.152210    3.521450   16.968088
 H   -6.979436    1.093009   19.148368
 H   18.112633    1.093009   -8.623239
 C   20.285408    3.521450   -6.442958
 C    0.168139   -0.672750   16.968088
 H    2.340914   -3.101192   19.148368
 H    8.792283   -3.101192   -8.623239
 C   10.965058   -0.672750   -6.442958
 H    0.622291   -4.834235    5.425704
 C    0.356294   -6.004836    7.048574
 O    4.320788   -7.124184    6.460851
 C    2.305010   -7.268633    7.673135
 C    8.828187   -7.268633    2.851994
 O    6.812410   -7.124184    4.064279
 C   10.776903   -6.004836    3.476555
 H   10.510906   -4.834235    5.099425
 H  -10.077671    3.643921   17.264370
 H   -9.146166    3.127195   16.070820
 H   -8.698950    4.390489   16.946511
 H   19.832147    4.390489   -6.421381
 H   21.210869    3.643921   -6.739240
 H   20.279363    3.127195   -5.545691
 H   -0.757322   -0.550279   17.264370
 H    0.174184   -1.067005   16.070820
 H    0.621400    0.196289   16.946511
 H   10.511797    0.196289   -6.421381
 H   11.890519   -0.550279   -6.739240
 H   10.959013   -1.067005   -5.545691
 O   -0.967011   -5.733807    7.347803
 C    1.000590   -6.916571    7.891532
 H    2.714549   -7.898518    8.254859
 H    8.418649   -7.898518    2.270270
 C   10.132607   -6.916571    2.633598
 O   12.100209   -5.733807    3.177326
 C   -1.644708   -4.866950    6.442958
 H    0.528066   -7.295392    8.623239
 H   10.605131   -7.295392    1.901891
 C   12.777906   -4.866950    4.082171
 H   -2.570169   -4.744479    6.739240
 H   -1.638664   -5.261205    5.545691
 H   -1.191448   -3.997911    6.421381
 H   12.324645   -3.997911    4.103748
 H   13.703367   -4.744479    3.785889
 H   12.771861   -5.261205    4.979439
Zn    5.566599   -6.290965    5.262565
