41
Coordinates from ORCA-job orca
  C   -4.45036723482302      3.64803732163975     -0.70804187494958
  N   -3.51178901894906      2.62517846034554     -1.10462179594218
  H   -5.11918866955660      3.84193021875276     -1.54955430122362
  H   -3.97618113715682      4.59445372901808     -0.43594284177613
  H   -5.05822871471739      3.32080746562552      0.14555097913227
  C   -2.46876087172733      2.19792125963762     -0.30679293338161
  H   -3.48579729845513      2.32161450897765     -2.06003725723671
  O   -2.11239478083137      0.92812229050455     -0.75585503274739
  C   -1.26502411784482      0.16367497851908      0.10013373553189
  C   0.18194916054586      0.49728600523747     -0.17542402026432
  O   -2.41294289268138      2.48845438326220      0.94401226477560
  N   0.62188803133509      1.78332510176928      0.44136182965835
  C   1.78116348635876      2.27580892232243     -0.38046481496054
  C   2.10675613264011      3.69778980520124      0.00023701457198
  H   1.45306103046271      2.26616106384914     -1.42353189155773
  H   2.63447605291349      1.58715296560932     -0.26983876083740
  O   0.92595269751649      4.43156533862108      0.11516542588082
  H   2.75797684298516      4.12870302556613     -0.77905210300201
  H   2.69386934747287      3.73064402007417      0.93820639692279
  C   1.06029893180146      1.47328371828836      1.85199308471643
  C   0.95493784976019      2.55814323374650      2.91345002023540
  O   -0.39012500966791      2.93898353801057      3.23019576221764
  H   1.43747068454647      3.48949667682608      2.61891323295788
  H   1.42671480994168      2.15889919712509      3.81964273635269
  C   -1.11051391258862      2.03950927692013      3.95413627148231
  O   -0.71286262643887      0.92342609959280      4.25141648714357
  N   -2.30434020119339      2.55397485184223      4.31767501992479
  H   0.84518414163276     -0.31165964800231      0.16298347316572
  H   0.28879104579950      0.58310379105526     -1.25912927584916
  H   0.46940545663507      0.62899484305620      2.20995982012797
  H   2.11014024076704      1.14816809096889      1.80535876808231
  Rh  -0.75270412936121      3.47059498669730      0.25759840225031
  C   -2.78554903864426      3.88528501291395      3.98468340036642
  H   -2.90138133037118      1.91570537113022      4.81289353434691
  H   -2.78848810230711      4.04675752242661      2.90447484103389
  H   -2.17076333088216      4.66074297082216      4.45587681251828
  H   -3.80652754598701      3.98307117775089      4.35815504293650
  H   -1.45406288369893     -0.87871565805403     -0.16901658346976
  H   -1.53679248204006      0.30871856025574      1.15192387280987
  C   -1.55957658152677      5.02002450996485     -0.05442480497431
  O   -1.97111712246411      6.08344051932893     -0.24436646517033
