35
Coordinates from ORCA-job orca
  C   -4.42413457372686      3.12417772329743     -1.11346270555193
  N   -3.19682357341952      2.88588836205423     -0.35052463687261
  H   -4.49614460369878      4.19062005381260     -1.32948296138554
  H   -5.28611352559251      2.81927188099408     -0.51893139527225
  H   -4.42749644987079      2.56119187116563     -2.05223167002449
  C   -3.04011060522676      1.72623104869268      0.28934218710318
  H   -2.35030561225026      3.39308466264379     -0.59443493208181
  O   -1.77818171170817      1.71665927349510      1.02514978826685
  C   -1.06123087392641      0.43966686260052      0.89450474278319
  C   0.30752906490218      0.58540381957294      1.53774258164474
  H   -1.00255389018196      0.20448828731063     -0.17209447441979
  H   -1.63943874645635     -0.34248886183538      1.39127696941950
  O   -3.74753351025240      0.76669578366967      0.36983060082198
  N   0.90634923991358      1.92295785191433      1.23208985900981
  C   1.30305458201330      2.03791777048412     -0.23169881043721
  C   0.89122754875764      3.40364438602537     -0.77251160420426
  H   0.77170701272068      1.25637739845099     -0.77866977781946
  H   2.37792635006986      1.84643568414711     -0.31931938775896
  O   -0.38830025136984      3.70574439378322     -0.26584837130248
  H   0.83793902496270      3.35872407741884     -1.86790693135583
  H   1.61501516580571      4.18342823610845     -0.50931256950446
  C   2.04514518180363      2.28781000126382      2.14891836356263
  C   2.23497738414771      3.79500256113794      2.06578793816175
  O   0.98905447860254      4.48924098897080      2.04736036294122
  H   2.82561643073733      4.05241504076270      1.17367033081362
  H   2.80804710399725      4.12984672029036      2.94093806445718
  H   0.23323599705417      0.49847374802548      2.62514210174861
  H   0.96143713971646     -0.22073648042719      1.18005026838088
  Rh  -0.52787083412592      3.31982058737350      1.63961805130676
  H   2.94974056734048      1.73577852586384      1.86792492151424
  H   1.75914887427035      1.98581420374426      3.16123870653244
  C   -1.74293133597989      4.73757166833735      1.81678323115821
  O   -2.44834697248033      5.61705617171204      1.89823993288439
  C   -0.71520477819247      2.88781971005937      3.43891593709190
  O   -0.81108507995622      2.63275349497900      4.54296893708785
