69
Coordinates from ORCA-job orca
  C   -5.19229303445915      0.88648650876969     -2.52409382428241
  N   -3.85860018267457      0.59707579944558     -2.04048407626756
  H   -5.36694427511482      0.33713183423006     -3.45301682587029
  H   -5.30357235980858      1.95956728959190     -2.70839685351980
  H   -5.95184675025725      0.58554305071974     -1.79026642402142
  C   -3.04400564085209     -0.24280251333817     -2.66540176959269
  H   -3.36000123246179      1.06898058248479     -1.20582727653951
  O   -1.81230669080131     -0.35195996451444     -1.91306810260148
  C   -0.67623044645512     -0.02010180233409     -2.75664002388276
  C   -0.51695545247384      1.49523404915220     -2.78171061226736
  O   -3.18379742718291     -0.87040411159018     -3.69059020954258
  N   -0.41098634993315      2.02233907823322     -1.39602904444428
  C   -1.08096132050295      3.34596737295702     -1.19681626593955
  C   -1.23409172614027      3.58507370780486      0.32522448657570
  O   -1.23439620685107      2.38508035305264      1.05671601821904
  C   1.01949125787481      2.17297100059619     -0.96625110910560
  H   0.35622568236967      1.77452026472289     -3.39175043273773
  H   -1.40193005873921      1.93660375853493     -3.25363469521823
  Rh  -1.56115493556576      0.90107330784787     -0.17084473733876
  H   -0.85413744219858     -0.41377194773523     -3.76281838556393
  H   0.17456786416944     -0.52809582645401     -2.30721877725172
  N   -2.62800355506234     -0.14182601629966      1.30044361939410
  C   -3.42126901467034      0.78473893563000      2.17895362912027
  C   -1.62666919684757     -0.83175223001228      2.17889485304064
  C   -3.49492469358966     -1.21043539892482      0.70236083545919
  C   -4.69997234875789      1.36052393352249      1.60847337530364
  H   -2.76572276034174      1.62265981143846      2.42854561671859
  H   -3.68772903456648      0.26340874811887      3.11050540892246
  C   -4.26679117821865     -2.11111469132468      1.66418460687851
  H   -2.83230336355451     -1.81512856891028      0.07534829899440
  H   -4.19024307496895     -0.71949738624140      0.02008303840631
  H   -3.61433367478628     -2.74091574370065      2.27258232293026
  H   -4.90198881584031     -2.77698077585700      1.07201107993457
  H   -4.92188466105356     -1.55184764457074      2.33883730369001
  C   -0.52607865750687      0.05800119711312      2.74317411225217
  H   -1.17132895255749     -1.63073115896322      1.58595369249158
  H   -2.14864057531037     -1.28552608515211      3.03347217302112
  O   -4.40001958028346      2.38800603752759      0.65490186873955
  H   -5.23961908097190      1.79745150712059      2.46381768637524
  H   -5.34286012948886      0.59814552226253      1.14878297749611
  C   -5.38444508490944      3.05137131461144     -0.00208369893003
  O   -5.08532884944422      3.83957387561279     -0.87411934079309
  N   -6.67433988569347      2.75562082107303      0.33680252171631
  H   -6.86579071317479      2.28105777406357      1.20168108059102
  C   -7.75462814312172      3.52267650083483     -0.26557324055337
  H   -7.74677067686406      4.57147928111072      0.05462758562280
  H   -8.70754676180650      3.06784872153612      0.01428439080571
  H   -7.65823901297775      3.50300557869229     -1.35308550761851
  O   0.17178973296623     -0.68994808734185      3.76838208183912
  H   -0.90369775984231      0.98872794170504      3.16383576937811
  H   0.22069402108630      0.29476467518938      1.98536144879944
  C   -0.42821738567879     -0.70190893583116      4.98791346321972
  N   0.29872660633428     -1.45197077684327      5.85876554297160
  H   1.21769753620506     -1.73477659451779      5.56292913001588
  C   -0.03777842739345     -1.48301547717748      7.26880621061728
  O   -1.47477008163820     -0.14319601706854      5.25554928723546
  H   -1.12231243578912     -1.54071965845485      7.37760590620440
  H   0.31049136102143     -0.59045897315746      7.80583842760884
  H   0.41025865109289     -2.36819096420817      7.72706789634511
  H   -2.06730963057644      3.28743596097827     -1.66462827786302
  H   -0.50430557435523      4.15781056485871     -1.67813263166512
  H   -2.17344318415439      4.14938540385197      0.46402015683817
  H   -0.41550162505449      4.23631616384739      0.68592503064113
  C   1.87596506306845      0.92206553930064     -1.02693486829140
  H   0.98332468531520      2.52927370419357      0.06533078027108
  H   1.47071040207347      2.96438797418208     -1.58930844511639
  H   1.41545429718873      0.11427357760275     -0.45081761964119
  H   2.85172361900278      1.15102515884085     -0.58715857385398
  H   2.05745810195608      0.57768220776054     -2.04910205497116
