44
Coordinates from ORCA-job orca
  C   -0.91642717606299     -0.27689092754634      0.31969833498216
  C   -1.26147327370277      1.03219275535804      0.67789389987315
  C   -0.39913252035617      2.13771072629990      0.65001146845502
  O   0.84995366589261      2.11613395391397      0.41553685848633
  O   0.24864503911631     -0.67562889697328      0.00499023849841
  C   -0.96749831112784      3.51394920306395      0.87874528536021
  C   -1.98955839696705     -1.32994189474653      0.25121568863437
  H   -2.30074852944853      1.22291107813517      0.91485665149230
  H   -2.96868714145617     -0.95018367618154      0.54512810167420
  H   -1.71193367534331     -2.16803910024120      0.89756467725873
  H   -2.04609032917046     -1.72042229628160     -0.77050858401359
  H   -2.03306020465734      3.49363077013320      1.11003899128024
  H   -0.80604580396988      4.11762829313450     -0.02058659617268
  H   -0.42293980246467      3.99890459745464      1.69407806597649
  Rh  2.05931420679068      0.34288673062921      0.33967216903440
  C   2.20703283186802     -0.04906544762011      2.14447937833435
  C   3.68838819368030      1.13154170750047      0.15071952148068
  O   2.60818570615289     -0.14286326528496      3.22328781439713
  O   4.70070042844872      1.69358479024267      0.23360818363581
  N   1.88981849151106      0.49693244030487     -2.47224186599395
  C   0.45975499804372      0.50341470299299     -2.83402348497132
  C   2.60733906961850     -0.70954750253896     -2.91803707659605
  C   0.10737277828036      0.42520369428785     -4.31318597471213
  H   0.01867106560194      1.41107978764545     -2.41679139454742
  H   -0.02512631435831     -0.33882601113925     -2.33383611154746
  H   0.79618789692471      1.03011395356392     -4.92083216853996
  H   -0.90166650954697      0.84399222198378     -4.44562283061595
  O   0.13952468212345     -0.95001713379498     -4.71863989852748
  C   2.22683264501667     -1.97776426194834     -2.17546880220089
  H   3.68011228403651     -0.53020284900438     -2.75636800998499
  H   2.47257479980830     -0.88077865627219     -3.99864877622326
  O   2.66639987211420     -1.98065263484555     -0.81155035281970
  H   2.65492919605322     -2.83725612674865     -2.71129865770318
  H   1.14531213320278     -2.11873692431296     -2.13735908309793
  H   -0.11445602445922     -0.99796266369018     -5.64583665783269
  C   2.62697969500121      1.68509068312552     -2.93735080947217
  C   2.01687938046623      3.02866593413895     -2.56661813143648
  H   2.78861852400694      1.65623146409613     -4.03435662710197
  H   3.62306476744291      1.63700056371328     -2.48005166050003
  O   0.93407224752605      3.43709210450888     -3.41125437743335
  H   2.81904725710660      3.78090016939238     -2.58430351752109
  H   1.62148011080805      2.99462236471113     -1.54814427150220
  H   1.30278234915683      3.68208520796562     -4.26627580270819
  H   3.63030673789182     -1.93211519622556     -0.80805347687774
