39
Coordinates from ORCA-job orca
  H   22.62893509666100     -4.98968919548102    -16.68261382383254
  O   18.09406920934347     -5.66722049712291    -13.44648062677004
  O   18.61154089531321     -3.89236199128064    -15.68364351402182
  H   20.38474439644331      0.47598716445858    -15.32197075057148
  O   20.97664602422622     -5.14723522779449    -11.43156985290875
  C   20.42026381460552     -4.79860133205961    -12.38905354185487
  Rh  19.54949312471811     -4.32762858669713    -13.90024412314116
  H   15.89414066164881     -5.77607104789505    -15.92618042778956
  C   17.53288275541715     -4.43913366212411    -16.10905080476178
  C   16.79087746517625     -5.40771214550372    -15.43904143993363
  C   17.09576798812766     -5.95446947522944    -14.17848958059481
  H   16.08585046097910     -7.85100725380536    -14.28615702888701
  H   15.15130084504736     -6.57618483256618    -13.49946806626639
  C   16.15851979682758     -6.99276932269789    -13.60921588358432
  C   17.07228201759333     -3.95015260356030    -17.45894303727399
  H   17.86454776214933     -4.12022779077361    -18.19612828235715
  H   16.15881120122674     -4.44624712609992    -17.79202157624101
  H   16.89939015505535     -2.86924001376998    -17.41390123365892
  H   16.51981916105867     -7.32828926190123    -12.63622276777895
  N   21.01858472831449     -2.84875403330636    -14.49879313699649
  C   20.25099567815299     -1.58160366012567    -14.75718282931084
  C   21.63463187455119     -3.32342286282069    -15.78181949136103
  C   22.10625722290885     -2.61263055543880    -13.49383497969107
  C   21.65763933203451     -1.89662325507994    -12.22892465984973
  H   22.44592614164435     -1.98689607309850    -11.47538130078233
  H   21.47528152957571     -0.83095906799314    -12.39397595317127
  H   23.24591270498977     -4.62505985488722    -15.07025065448752
  H   22.51822620279669     -3.59059930484201    -13.23608483090654
  H   22.91419512895451     -2.03982482442428    -13.97732260263061
  H   22.34838960785421     -2.56372070398223    -16.13531844054741
  H   20.81761372435138     -3.38717932176567    -16.50724578646731
  C   22.33712477840970     -4.66839557050444    -15.67743992821916
  H   21.86939661773500     -0.10117955320744    -14.56696657375730
  H   21.48856737756503     -0.54201071019397    -16.24229769698760
  H   19.48053048454235     -1.83523209501315    -15.48899518467937
  H   19.73499631605746     -1.33298971595761    -13.82541798861019
  C   21.06119993250640     -0.38176165430734    -15.24871525164376
  H   21.66269143489467     -5.41917014087038    -15.25055704164003
  H   20.74811835055584     -2.34407184027964    -11.81815830599922
