71
Coordinates from ORCA-job orca
  Rh  -0.43245896567693      0.45391208138104     -0.25149061982487
  O   -2.26714796855796      1.17733494262261     -0.28634587638096
  O   1.97436836967272      2.83867885987665      0.39496292037305
  O   -2.76048398153048     -2.10741883275807      0.39696688087831
  C   -1.97306867507107     -2.54001760275432      1.50711605456779
  O   1.50101552071600     -0.33991452340840      0.04198157818907
  C   1.89249811965048     -0.31037282936752      1.44912468418452
  N   -0.15862629696409      1.59487650890221     -1.96771757149016
  C   -1.43023486849799      2.39918068205083     -2.15656909739027
  C   -2.61124909284698      1.66013200042463     -1.54798312555245
  H   -1.56183602617415      2.64997964805721     -3.21859031374209
  H   -1.31855976682100      3.34161210433065     -1.61173447276699
  H   -2.94270419279708      0.82383424774939     -2.20027190156182
  H   -3.46480899536509      2.35661063512025     -1.47948445832970
  C   0.96876111571020      2.57097114053698     -1.76414519368505
  C   0.90293768911004      3.31662715422718     -0.43674148091370
  H   0.96383875171563      3.28428648519352     -2.60373373285453
  H   1.91099969274240      2.01771370058959     -1.80650407951626
  C   0.17962589271150      0.85773687318372     -3.22942547998375
  C   -0.84684657719222     -0.16228339712352     -3.69889637581368
  H   1.12196008506796      0.33717454304983     -3.03508877202790
  H   0.35183087453241      1.57918926867046     -4.04512855821116
  O   -1.84648412063521      0.35993930075975     -4.57629535425947
  H   -1.28719879238914     -0.65404546983501     -2.81846993188744
  H   -0.31865392845681     -0.92203169216376     -4.28523532586565
  H   -2.53877375023385      0.76226347700823     -4.04034563998123
  C   0.67670889138465      0.11812722819356      2.25566532511126
  H   2.70566274362883      0.40905937636433      1.57699154409790
  H   2.25238861555566     -1.30510085234080      1.72065990116039
  C   -0.62202868562280     -1.85788533257414      1.66879822516917
  H   -1.77619380216311     -3.61510399314946      1.42789617848186
  H   -2.61337710551113     -2.36814705652519      2.37460083063091
  N   -0.60734619789669     -0.35580092951942      1.64650577009778
  H   0.05388211223133     -2.21895040664632      0.89336727018099
  H   -0.23953772320037     -2.20366895387515      2.64769553350219
  H   0.62647477877572      1.20444073308751      2.29659440443974
  H   0.78454127086579     -0.26562980364462      3.28667903447701
  C   -1.76400867778608      0.14939709303531      2.45661489622137
  C   -1.76744940035543      1.61535588264313      2.88464436388200
  H   -1.81658498930248     -0.43257962897057      3.39314129892111
  H   -2.66355620659751     -0.05408645302616      1.86966072680315
  O   -1.74186242113702      2.57873341881996      1.85448821392965
  H   -0.93353070175482      1.82262677579650      3.56943112292976
  H   -2.68708598477581      1.72190131633423      3.48700298752407
  H   -2.04942708421879      2.14570917652574      1.00453032829962
  C   2.05837004685122      3.21590136008129      1.70219387901174
  N   0.97721810214052      3.85349712102169      2.23686278211824
  O   3.07757563243496      2.96846493245649      2.31429065125631
  H   0.05609760096383      3.64770557631669      1.86271825988191
  C   1.01764872567948      4.16447397966384      3.65872604902996
  H   1.84974901390927      4.83921869785260      3.87338379937369
  H   1.15123901347113      3.26871004556897      4.28004255597531
  H   0.08112063106482      4.65636029062828      3.93086117461121
  H   -0.06402233929159      3.10871912562985      0.03262032312785
  H   1.03009135146227      4.39844312665440     -0.57808166924782
  C   2.05354152483243     -1.44137700627551     -0.66755956187180
  N   1.18879486603860     -1.83688113232087     -1.60437023274529
  C   1.44785198005790     -2.97984008389122     -2.45736133134376
  H   0.24532338799608     -1.42049447834536     -1.48814977702053
  O   3.14725588314820     -1.87443926969006     -0.39073140463265
  H   2.29780709686151     -3.53979283878803     -2.06031957388401
  H   1.68627722751699     -2.67165042997894     -3.48311833513259
  H   0.56502072844622     -3.62387617706917     -2.47018044363333
  C   -2.42048707426988     -2.62421329787916     -0.81463198305945
  N   -3.25456192691821     -2.14486389462948     -1.76715014543961
  O   -1.51562114846025     -3.41998317719585     -0.98995406150597
  H   -3.96577737507821     -1.49947050745749     -1.46593180748616
  C   -3.25489882539172     -2.64872423712289     -3.12591478676328
  H   -2.34040938658298     -3.22395127766173     -3.27857613161911
  H   -3.27219732144448     -1.82648733960857     -3.84825634575106
  H   -4.11189234487719     -3.30735553801251     -3.31505580156326
