70
Coordinates from ORCA-job orca
  Rh  1.29907793989629      0.53537259205754     -1.70861041305362
  N   2.12305858258959      0.35320285266213     -4.51450801985750
  C   2.33646784208892     -1.08708185889460     -4.61707737109013
  C   3.32010855878564      1.20279986381463     -4.56044898178370
  N   0.66925666193421      0.37634731023848      1.24494442238747
  C   1.90497663014035     -0.22069856140174      1.79162477529413
  C   -0.39088823340738     -0.64552907179607      1.28881326904590
  C   -1.75304207887092     -0.17507135214184      0.78173676653085
  H   -0.49893923038959     -1.03197445954745      2.32044926381712
  H   -0.07485871517668     -1.48470831357509      0.65833527470818
  C   3.15993070837173      0.63093523102295      1.78647132236528
  H   2.10863747286996     -1.13143781561580      1.21776195107250
  H   1.72866116876583     -0.53319334071159      2.83648985497246
  O   3.09975343400806      1.58929304092511      2.83794751983230
  H   4.00974028938565     -0.05166134042381      1.93135441066431
  H   3.29096311726229      1.12243104667896      0.81039886792186
  H   -2.28975486518735      0.42370988224766      1.52700585741817
  O   -2.55662697872582     -1.27969966126801      0.37878948908726
  H   -1.61773907305161      0.45043726814362     -0.10704592375599
  C   0.28554975279961      1.63620058490988      1.91480020532101
  C   0.78513223704507      2.89585016993632      1.20468412611993
  H   0.66002981401362      1.63662554052022      2.94865494518884
  H   -0.80168055407063      1.71529396291970      1.96385996652192
  H   1.87403700180715      2.86729628423488      1.08241123214109
  O   0.37394969416154      4.05049653877007      1.90911442270823
  H   0.32485949961513      2.95550014390865      0.21204903288419
  H   1.59128320285277     -1.59096317111655     -3.98849365166573
  H   3.32198762415775     -1.31846300581371     -4.19752354105098
  C   2.27589928189837     -1.70259272784816     -6.02945569898342
  H   1.24425470377160     -1.67967093739148     -6.41041459692235
  O   2.78675858476868     -3.02191627748352     -5.99165863698305
  H   2.90064281662215     -1.14095056113162     -6.72830312994497
  H   2.99085595119702      2.24704140954107     -4.59301944143939
  C   4.32031261949186      0.95056908875995     -5.68101680137492
  H   3.88082771314823      1.06051415340511     -3.62689032613469
  O   3.71848477018433      1.23083404845165     -6.93468050478750
  H   5.17779757206657      1.61361320519726     -5.48889576781163
  H   4.68901409264693     -0.08596342575051     -5.63439321697820
  C   0.87515345428929      0.90090452103045     -5.03590168365419
  H   0.07790400932458      0.18234391409440     -4.80796136348040
  C   0.76230005266465      1.25959917163466     -6.51921769847660
  H   0.64636799017990      1.81847754607004     -4.48285098974843
  H   1.00302057183924      0.40975961603838     -7.17013197401321
  H   1.44536888698135      2.07869851115663     -6.77065076573727
  O   -0.60458822028557      1.64901555670076     -6.65079253000094
  O   -0.26433509196646      1.66574923004546     -2.17252475590758
  C   -1.40929416117611      1.30855444389361     -2.65179372695609
  O   0.28099543338617     -1.09165643931158     -2.01974972425983
  C   -1.81294785748900     -0.01692113454535     -2.77401916093114
  C   -1.04916527478823     -1.21243868111369     -2.38995755062484
  H   -1.61311190857024     -1.58385324598491     -1.49480901847217
  C   -1.19926288746992     -2.35120161454636     -3.42132164875484
  C   -2.28111015885830      2.42914081720891     -3.11218436262276
  H   -2.82195462196763     -0.19840837183771     -3.13181123386045
  H   -0.77398795645544     -2.05500027682907     -4.38408256266278
  H   -2.25348396325900     -2.59795682022280     -3.56714381993330
  H   -0.67691465071620     -3.23360210057626     -3.04819149071744
  H   -2.21598176051739      3.26878223959454     -2.41634269911663
  H   -3.31879412543282      2.11583473916351     -3.22666485604189
  H   -1.91716222598779      2.77773564382425     -4.08712688851967
  H   -0.73761624143158      2.00767373774278     -7.53411291796587
  H   2.13362321784354     -3.60465733830548     -5.58919336891845
  H   0.91615233534197      4.13020665207651      2.70222648876528
  H   -2.83058835327369     -1.77337898752605      1.16027105948278
  H   4.38358294439944      1.13989625769521     -7.62571830714569
  H   3.97586310885577      1.97144962274047      2.95545047862010
  C   2.77947162962933     -0.46487782621150     -1.36168755578566
  O   3.71963049541378     -1.08762728368058     -1.16984597993506
  C   2.30620454160021      2.05476158114465     -1.53834294488983
  O   2.95159411602903      2.99909768610178     -1.49933084681991
