41
Coordinates from ORCA-job orca
  H   21.89942272496130     -3.69306155663937    -17.66635853937038
  O   18.05166810394157     -5.15237588898309    -13.38624857666826
  O   19.46298832599792     -5.93987354161322    -15.79636446308954
  H   18.98205511357933     -0.24283136921781    -13.51960700072329
  O   20.18228904617247     -6.59372449829434    -10.85452223309485
  C   20.07073751941538     -6.38333433435180    -11.97863710048858
  Rh  19.83924637760144     -6.07698160099636    -13.77996348341656
  H   16.57413391670392     -4.38003507992573    -16.25242352705992
  C   18.44161140058703     -5.39319382772283    -16.32900804809909
  C   17.37039366290382     -4.80035620548786    -15.64941120523312
  C   17.22769063815035     -4.71911375704615    -14.25967545184982
  H   15.49796241863434     -4.75619335383372    -13.01119608788361
  H   15.31207401166603     -3.71305856713630    -14.44872098500631
  C   16.00707035273146     -4.05451926066246    -13.67983609914885
  C   18.43802334785687     -5.42267247903111    -17.83507341516905
  H   19.36217391813827     -4.96650040288987    -18.20541176348770
  H   18.43796594530559     -6.46446855392751    -18.17286117549426
  H   17.57741423072461     -4.90467844203974    -18.26159810752200
  H   16.32257595324387     -3.20133519954343    -13.06920323303866
  N   20.77727976637462     -3.05710740028202    -14.48695772350301
  C   19.66522723822788     -2.24639602351102    -13.96795239436745
  C   20.97096888455741     -2.83386238457395    -15.92489832288335
  C   22.03054082184514     -2.88064797389042    -13.74091201499994
  C   21.87799030222370     -3.05477209414989    -12.23611244558751
  O   22.44266529594714     -7.42888168461960    -14.36526203741378
  C   21.44085268569549     -6.91861664624186    -14.12972942173661
  H   22.97248730486592     -3.64898516830750    -16.27282366179448
  H   22.73682684738542     -3.63701161402799    -14.10192957593324
  H   22.49408907236211     -1.89453936089412    -13.95293753445245
  H   21.32198174872163     -1.80309250564571    -16.13576538670100
  H   19.98407876603354     -2.93173320620749    -16.39881213895914
  C   21.93595156126254     -3.81709051149547    -16.57870346733647
  H   20.71960499981011     -0.45049085646511    -13.27861158175332
  H   20.06209602757525     -0.30935403443157    -14.91619274765448
  H   18.79412377356742     -2.46715628587656    -14.59860419394366
  H   19.41420406452792     -2.61391039697436    -12.96558134158727
  C   19.87812396304015     -0.72771374048179    -13.92177716778803
  H   21.65839371212630     -4.84814888803775    -16.34110781066461
  H   21.36933005914117     -3.99758416170026    -12.01044479786985
  H   22.86730841580173     -3.07897780722220    -11.76848880901962
  H   21.31389768035832     -2.24036533549188    -11.77183092820920
