78
Coordinates from ORCA-job orca
  Rh  -0.40696552569526      1.30213496656473     -0.32157724733534
  O   -0.47537933351410      4.38774565673659     -4.48032411235079
  O   0.73016402506554      2.99185077227611      0.21853176841631
  C   -5.26032515381564     -1.88080721526478      1.90164504796433
  O   1.22364587230946     -0.11055227409012     -0.11301686763980
  C   1.12526427391297     -0.81301937430048      1.18204445367244
  N   -0.11929412726768      2.12175869631867     -2.43210565884575
  C   -1.37490528281040      2.85607576616243     -2.84380350393234
  C   -1.48234280073933      3.40219353857604     -4.25590258789186
  H   -1.51302542574180      3.68650501376105     -2.15084844632504
  H   -2.21102941781808      2.16721910618339     -2.71247381920695
  H   -1.44343402539823      2.60278296844851     -5.00466862566392
  H   -2.48836993187595      3.84842731004030     -4.31496112187696
  C   1.01367886025178      3.08699760567704     -2.20618242087882
  C   0.82677953766513      3.89072511607275     -0.95243554850863
  H   1.11294335415146      3.76779561789294     -3.05852091411689
  H   1.92813695667200      2.49736120272341     -2.10366537940904
  C   0.32569549466160      1.21781825026586     -3.54538640698597
  C   -0.46470309813472     -0.04793128737567     -3.78154993085212
  H   1.34093093176687      0.90049110177487     -3.31643573794228
  H   0.37930167393255      1.80961460520111     -4.46731307232869
  O   -1.82949162208776      0.23775301139615     -4.09303953945142
  H   -0.39786908238775     -0.70414786646272     -2.90453476313012
  H   0.02852468108526     -0.55491651401857     -4.62525486756314
  C   0.48696957117405      0.16140659489593      2.13171139865098
  H   2.13637307841541     -1.08634577415184      1.49280961374109
  H   0.48580866992124     -1.69302221843823      1.04515691188428
  C   -3.99808406124024     -1.68120962575705      2.26131149524366
  H   -5.86187479710237     -2.68388380314662      2.32515881947990
  O   -5.88378088485223     -1.09870809409032      0.96761035075716
  N   -0.74033414578648      0.62790043713917      1.53597432750533
  H   -3.40434595810135     -0.87206638304136      1.85050495171443
  H   -3.55198869097639     -2.33217183616312      3.00099846701008
  H   1.23737955647900      0.93753770408883      2.39265123532103
  H   0.27584266269543     -0.38002057389489      3.06935179313171
  C   -1.61100175078383      1.29763162948404      2.48642808775199
  C   -1.17103820140188      2.65598057072335      3.04087902085783
  H   -1.74354502011688      0.62620648592973      3.35168216109276
  H   -2.61416578735906      1.41356780030453      2.05186763215377
  O   -2.05411386763749      3.13206975011636      4.04689143003221
  H   -1.07771245881151      3.38033305802007      2.21402268624843
  H   -0.19786744283249      2.55795527961303      3.53667806550034
  H   -2.95029346659912      3.12731472695016      3.69162341059231
  C   2.00194694742803      2.88856439771719      0.90374234747192
  N   1.94374794298737      3.59374984485342      2.03706799566584
  O   2.92299805785793      2.27735813539146      0.43943766152883
  H   1.05568709373500      3.98940132372530      2.30108479099740
  C   3.06047736748821      3.63010937831082      2.97291946125159
  H   3.99286254457694      3.51247770688734      2.41967893556619
  H   2.98615276629667      2.82686386127841      3.71493802805438
  H   3.06613190854369      4.59174458379163      3.48914571377347
  H   -0.09000635245706      4.48234511495094     -0.92992311785095
  H   1.68053518026683      4.55775021582706     -0.80091247432147
  C   2.19510135358270     -0.52870510868862     -1.02992926950919
  N   2.60753580805452     -1.80122208663190     -0.88124317352822
  C   3.61852319826489     -2.34283860863119     -1.78400569330679
  H   2.08652086006190     -2.43964805777622     -0.30552450925543
  O   2.60308350226093      0.24616995376055     -1.85658972127600
  H   4.44127797121940     -1.63255606838694     -1.87807789874261
  H   3.20946535348948     -2.53602140419249     -2.78161933024370
  H   3.99826710829895     -3.27532467879218     -1.36382494191802
  H   -0.58636058831522      4.74647043417917     -5.36714861478622
  H   -6.80009244079498     -1.37927461180171      0.88125126155874
  O   -1.88656336180117      2.53259733351483     -0.13513326198237
  C   -3.11209041445207      2.14963503357156     -0.25821268824175
  O   -1.44120374176532     -0.21440829839977     -0.91815101867340
  C   -2.71887834367305     -0.20640395718066     -0.95668723498073
  H   -2.24542437551389     -0.57169272161605     -4.40702913540467
  C   -3.53917921522094      0.88317666527911     -0.63275516170642
  C   -4.10718657892646      3.23801201956066      0.00543911167627
  C   -3.34107086898102     -1.50256783101535     -1.37128214128379
  H   -4.10930883950696      3.93999204229087     -0.83671793698663
  H   -3.81894163227993      3.80629189643138      0.89413438726327
  H   -5.11428216091428      2.84079002730706      0.12914443322843
  H   -2.64016982589949     -2.08463164522038     -1.97228104978662
  H   -4.26967373305906     -1.33819428884219     -1.91962126351087
  H   -3.58291089262331     -2.07921099390991     -0.47019158547330
  H   -4.60667780910073      0.71194002341477     -0.67301197715350
