47
Coordinates from ORCA-job orca
  Rh  -0.91812451982605      0.72204391576516     -0.10548867804926
  O   -2.68228621267377      1.44735045891936      0.00577154032528
  O   -0.21339265903571      2.38090043683335      0.52746394474030
  O   -1.59085369212343     -0.92058768081217     -0.78221896608180
  C   -2.48769857465454     -1.51419396360109      0.13726473827227
  O   0.87532295195368      0.04967425955474     -0.18161699490237
  C   1.18904486459603     -0.84552599408954      0.86526318890221
  N   -0.73018499027685      1.75517096897380     -1.86835367230142
  C   -1.82677701245591      2.80343213300645     -1.81738462147095
  C   -3.04695424893777      2.23897535844555     -1.11285549078809
  H   -2.06189001538974      3.13917241584464     -2.83035995465953
  H   -1.43358408992268      3.64294216779148     -1.24045344859871
  H   -3.64642849608641      1.62375329145696     -1.79914934541478
  H   -3.69177885465207      3.06149175055202     -0.77587223069855
  C   0.61124496643070      2.42140189963840     -1.74930896448334
  C   0.79102559686284      2.92924696126826     -0.30389294186468
  H   0.67629411016158      3.23730279419532     -2.47933528346080
  H   1.36473147486688      1.67019226031054     -1.99080855021510
  H   0.71204406638516      4.02115553326894     -0.23244378457211
  H   1.78848302908442      2.64564838564927      0.05728417590563
  C   -0.72309173613005      0.93631258674175     -3.13262080731436
  C   -2.04248606497693      0.36098538589452     -3.60513525776838
  H   -0.01873612535629      0.11820116426989     -2.95794930390565
  H   -0.32487344578149      1.57475652707855     -3.93299687634911
  O   -2.81923801614051      1.39571910812652     -4.20098777966119
  H   -2.57385090563202     -0.13514745253738     -2.78239333008942
  H   -1.78456924571420     -0.41273912363315     -4.34257042117823
  H   -3.54706024093505      0.99746945299584     -4.69041626346179
  C   0.38711056240133     -0.48374008787954      2.10811779625616
  H   2.26235772568570     -0.78134056891064      1.08410053553850
  H   0.98584679204262     -1.87868057809837      0.54215122935287
  C   -1.69687665284933     -1.63779279239826      1.42671686592041
  H   -2.79095341464494     -2.50084447259521     -0.23121264963865
  H   -3.38210337390510     -0.89036848907291      0.27607795651290
  N   -1.05034987894247     -0.29158038935562      1.70919143102984
  H   -0.90777786187506     -2.38155144844183      1.29519228584093
  H   -2.31341989272745     -1.93740218781543      2.27964623089758
  H   0.74901960699630      0.46524351224556      2.50985106692527
  H   0.46029314651994     -1.24946300718338      2.89058171102746
  C   -1.85452771853691      0.37371905995223      2.79429070602465
  C   -1.52319019119401      1.82216660541637      3.15825603872242
  H   -1.73869686248998     -0.23329150916419      3.70246433134192
  H   -2.90287111769149      0.32039897168799      2.48173471625793
  O   -2.19428686669310      2.11755029869620      4.37289660630592
  H   -1.80347328527765      2.50564836214022      2.35185298994443
  H   -0.45582253859755      1.95939448325190      3.35252362462935
  H   -3.08451529636061      2.42607907491689      4.17584653265407
