62
Coordinates from ORCA-job orca
  Rh  -1.06116606096889     -0.42993530347444     -1.46378411584781
  C   -0.56379016233422      1.26909142879374     -0.93476282753314
  O   -0.24229994588087      2.33193121567284     -0.64988599685930
  H   3.13351564788891     -0.01742785861937      0.41833616528700
  C   -2.78525958978267      0.05450357844394     -1.07671979919077
  O   -3.80547356075497      0.45806658926280     -0.72063427605227
  H   4.09238264230812      0.01425970391185     -1.65615401622867
  H   1.76878109036314      0.56828147294769      2.72606601022209
  C   2.00522064850835     -0.47514973930876     -1.29375288873034
  C   2.16025987396633     -0.35153963127650      0.07189684656285
  C   1.20585902863806     -0.70424257902027      1.08643456658837
  H   2.62906953033664     -0.97176829959974      2.70199927349594
  H   0.91145799987238     -0.92131279383536      3.20329882773012
  C   1.65512176429271     -0.50364012873802      2.52256579447632
  C   3.18312025913761     -0.23707328224923     -2.20526557459517
  H   3.36172211276147     -1.13808577631764     -2.80328851078019
  H   2.94645720967783      0.57013997962793     -2.90773346714914
  H   -8.16889952006369     -2.32455675311903     -2.90749124353505
  H   -6.66336969520841     -2.46935664084085     -3.81641324523182
  H   -2.83485305024796     -2.88972975774403     -0.79453724939879
  H   -2.85960577872285     -4.06840539840576     -2.12004261082755
  C   -0.50479264535099     -3.40281475771122     -2.28980793404689
  H   -0.21245510714148     -3.10684460278450     -0.16007797588572
  C   -1.78973060064440     -2.13550417188904     -3.90743278826610
  C   -0.31786438220243     -3.93794898226698     -0.87076714264092
  H   -0.72322786403317     -4.24730599478482     -2.96424523770238
  H   0.43172269357051     -2.93884240994689     -2.60844360863047
  H   -1.16785270314041     -4.55490088617475     -0.55893196917968
  O   0.82131432025774     -4.79291766533960     -0.87242622524047
  H   0.13589981592379     -1.12004677037863     -3.95830818047801
  C   -0.53584052733038     -1.64540332780573     -4.64550133501571
  H   -2.16191049321158     -3.06199466636435     -4.37546478497470
  H   -2.56137789310280     -1.37042870252793     -4.01976851824827
  H   0.01669731441635     -2.48811785384465     -5.07451127143441
  O   -0.90799342792739     -0.81988408708180     -5.74469467935700
  C   -6.41700232163735     -2.14255278266512     -1.66935754014179
  C   2.03397899924051     -4.13769684937936     -0.48143890779774
  C   -1.15719669038937      0.54141154011574     -5.37541436743825
  C   -4.16261430011649     -2.39470276136353     -2.39750735413715
  C   -2.85540902124116     -2.99322744947506     -1.88347034126948
  H   -4.41320123588982     -2.81059605962514     -3.38554311415290
  O   -5.13891414824312     -2.73843085251282     -1.43250332057517
  H   -4.10199537597357     -1.30083432725728     -2.50894922583466
  N   -1.59902224266502     -2.38680659636752     -2.44074469077468
  H   2.84380588523202     -4.72429235204532     -0.93103890325627
  H   2.07500426290292     -3.12290102597687     -0.90469774846777
  C   2.18953251356151     -4.08711079410620      1.02961850803116
  H   2.19584582648271     -5.09865935539234      1.44708875890872
  H   3.13170631324142     -3.59317543203404      1.29440268541739
  H   1.37263048618052     -3.52303238278304      1.49054856316360
  C   0.11166633596541      1.31750521890617     -5.05632907414611
  H   -1.66668853220946      0.97895053656227     -6.24076745313994
  H   -1.84813931702794      0.59147311536057     -4.51600185530733
  H   0.81419984213480      1.26868066641607     -5.89411297990034
  H   -0.13783692995882      2.36810745199299     -4.86975794625062
  H   0.60392282132403      0.93343020635495     -4.15665713236572
  H   -6.98543478535739     -2.33086409558796     -0.75286703437317
  H   -6.29867581958971     -1.05127148518198     -1.77348932329446
  C   -7.14970621176916     -2.72368784066213     -2.86972314018603
  H   -7.21046057776078     -3.81369176872186     -2.78896917299490
  O   0.92784267362364     -0.82072696049370     -1.93387108969039
  O   0.07054960732586     -1.16454671169881      0.87295918857241
