17
Coordinates from ORCA-job orca
  Rh  0.77429128513892      2.47816376692839      4.37393402740118
  O   0.86467209169519      4.36093240583423      3.80923393592292
  O   0.83589959167074      1.76100548981824      2.51349041919098
  C   0.71162922944438      2.98506436566276      6.13271047311705
  C   0.93870521505553      4.70769054105475      2.57395678108292
  C   0.91391178754115      2.47625697903682      1.45708845211452
  O   0.67147668536489      3.29638794310219      7.24356545821417
  C   0.96467875933528      3.87579094201337      1.45084386089246
  C   1.00321127986914      6.20323724484908      2.39970710830707
  C   0.95124185577319      1.71224868530385      0.16329753320863
  H   1.03047194324427      4.36287370322192      0.48536718187377
  H   0.12344638943613      6.66167837729132      2.86213157024671
  H   1.05012282383542      6.48779830315657      1.34759230649907
  H   1.88404897970010      6.59154721360254      2.92100864445286
  H   1.81275275210407      1.03610221756899      0.16785423501600
  H   1.01289781389965      2.37124107855838     -0.70400405689180
  H   0.05366751689195      1.08990874299657      0.08456306935149
