51
Coordinates from ORCA-job orca
  Rh  1.01794564988758      2.54918159166269      4.45072809650750
  O   0.98334043280842      4.58373524894499      3.37639284060883
  O   0.64991601494784      2.00750717456264      2.20107670506443
  C   1.20210383766927      1.76532378937462      6.03452170523910
  H   4.45419729126445     -0.27536585013856      3.74063157272060
  C   0.82829122056624      4.95223473741620      2.17449515943751
  C   0.53828947253103      2.69570312862139      1.14665077418929
  O   1.31938523142321      1.25131344750428      7.08303702792617
  H   2.85594333468113      1.02756827578461      1.75895968218103
  C   0.61213397016670      4.10172311883132      1.07430091368388
  C   0.89303978053786      6.44639529325364      1.92900953764183
  C   0.30223978958713      1.92039383369403     -0.13462340992410
  H   0.49650453761447      4.56187994955210      0.09924819463405
  H   0.11915084553360      6.94500990908150      2.52313710841986
  H   0.76437301944262      6.71190545022398      0.87708605308336
  H   1.85807605580136      6.82690855883799      2.28165134800784
  H   1.14362951586506      1.23918591634943     -0.30436050818371
  H   0.18237002158561      2.56549847432878     -1.00820646201008
  H   -0.59168407231367      1.29808890538657     -0.01815533818916
  H   3.60131284819268      1.29429041105734      5.77932521419486
  H   2.70878923840613      0.04716811128426      3.86783683929262
  H   4.62353717440735      1.15833790914130      1.82849237775232
  H   4.99406473392216      1.84627983377127      4.81039368380396
  C   3.54263947169538      3.98122189275155      4.98075623771881
  H   3.29095921999958      3.87636621442466      6.03893190652362
  H   4.62524981532553      4.15849644778213      4.87449384203749
  H   2.98225486051032      4.82243158966817      4.56750116954449
  N   3.15710032851484      2.74367457061251      4.26572877595242
  C   3.92625801569710      1.56748174065551      4.77391625113063
  C   3.69007444032413      0.50647223518347      3.71160080489657
  C   3.69775360882056      1.31384111802813      2.39087792601135
  C   3.58583555569279      2.78511664194331      2.82859959320130
  H   2.88199967276918      3.37392604290041      2.24067856038953
  H   4.57107083187869      3.27694582934523      2.78952671563068
  C   -1.53548141621432      4.22098367826333      6.02409019428585
  C   -1.66484840560445      2.70814660098607      5.95665163495330
  C   -1.88610216538711      4.67460704699960      4.58642755186897
  H   -2.19334275718255      4.65345270655431      6.78323781780862
  H   -0.49971093450111      4.48455449518512      6.26101986301231
  H   -1.12381639177641      2.16578728024267      6.73390869024800
  H   -2.72716154514045      2.40837840068551      5.98779031034986
  N   -1.12608331352802      2.37722691502813      4.60251897989296
  C   -1.82539542087498      3.38837390911269      3.74269415654948
  H   -1.16783340440249      5.41392201188772      4.22989127466057
  H   -2.88837798363623      5.11095590918134      4.53542403477486
  C   -1.48140675415779      0.99562588417496      4.20652624226250
  H   -1.30337189622722      3.49974161616743      2.79254477323938
  H   -2.84062663574487      3.01037415660581      3.54225399801661
  H   -1.08675938315274      0.79878422034104      3.20741402506947
  H   -1.02765986218158      0.29305452700606      4.90978870468213
  H   -2.57613438238423      0.86895228045912      4.21356293681057
