97
Coordinates from ORCA-job orca
  Rh  0.98775371301288      2.19289301139148      4.08412507710255
  O   0.65490789400045      5.12265231052650      3.94211893033799
  O   0.94472536310230      2.82765799536477      2.04168109768149
  C   1.03330457180258      1.13921465073585      5.51965910831806
  H   0.77625751543231      4.29821551598779     -0.88386453456608
  C   0.65211986108040      5.76169553261648      2.87016928181134
  C   0.86351812961515      3.82504032163865      1.24894531307113
  O   1.02330626161101      0.40213283892104      6.42734355062687
  H   0.19022268209760      2.67317413606982     -0.42723440375719
  C   0.73744106600586      5.18197142381064      1.56925799916856
  C   0.53392575553295      7.27599785966751      2.95465429523671
  C   0.93574262155080      3.44779169158209     -0.21742113887980
  H   0.70496491169010      5.86630033672334      0.72790877572612
  H   -0.44177454571290      7.52895708269145      3.38563768342568
  H   0.63618541419550      7.77676251832734      1.98841177349166
  H   1.29358365347544      7.65406233502716      3.64645869312543
  H   1.91843977937753      3.00946588031099     -0.42942992987909
  C   -2.48719534367507      3.57888556734753      6.48218863231708
  H   -0.83804475112351      4.29013223430226      5.24174965338808
  H   -0.45114946312843      2.95740475336015      6.30191129193278
  C   -1.98775022669755      1.17482669391112      4.77452910813996
  C   -1.74844100254244      3.07744060368170      3.17134909000021
  C   -2.19197840574067      0.00588254903521      3.78795690368089
  H   -1.48089287590471      0.77893321566482      5.66018186788764
  H   -2.99519365594655      1.47595621641115      5.09328158456793
  C   -3.17499371755831      3.66901618154488      3.10368002029241
  H   -1.05370428417519      3.88699335198866      2.94796130826780
  H   -1.62451649847459      2.33322759955650      2.37995116046426
  N   -1.23072778300488      2.41655023436828      4.41420739954814
  C   -1.21862104376192      3.33958385870295      5.62109018218997
  C   -3.21707784854059      5.12961760030936      3.56701348192585
  H   -2.60537592389697      5.74169171331216      2.89246397722156
  H   -4.24138362483301      5.51793579605187      3.53682872174617
  H   -2.83319837440034      5.27653662239157      4.57531876533964
  C   -3.62906950289089      3.63991721203068      1.63716835479292
  H   -2.88822596081728      4.15173229255802      1.00909395555734
  H   -3.75038540740578      2.62349693887468      1.25429726789336
  H   -4.58430479242353      4.16192239649530      1.51661614161091
  C   -2.71511488129610      2.52540125320780      7.57702061762098
  H   -3.52255643745239      2.84597118010564      8.24489772835902
  H   -2.98061146929641      1.53864192629600      7.19460982390039
  H   -1.80925135043379      2.41241112820961      8.18538572699134
  C   -2.28685839635947      4.93395894160277      7.18030385162694
  H   -2.13920454046447      5.75359385576830      6.47043095561519
  H   -3.14612945895817      5.17758869211579      7.81373795259584
  H   -1.39857419213066      4.89684652194026      7.82338761478203
  C   -0.94847974690618     -0.47253714000326      3.05115966634896
  H   -1.16622754147946     -1.40302738291644      2.51333312118657
  H   -0.62364633953825      0.27052695161258      2.31676120508477
  H   -0.11079671660916     -0.65115046985625      3.73047638405366
  C   -3.35706045777267      0.18057277386489      2.80759740543969
  H   -3.08278882773125      0.80798573525059      1.95665010004153
  H   -3.64860985374643     -0.79511713949332      2.40356802153787
  H   -4.23830754387482      0.61920542495250      3.28876735891049
  H   -3.38497121140870      3.64082652849686      5.85441825507718
  H   -2.49553553500371     -0.80226564821303      4.47247331573093
  H   -3.87695090484098      3.06751170079753      3.69735805306488
  C   3.37667785621763      3.79775933137771      3.70915894453326
  C   4.71045145126592      4.42969296946507      3.22708562118675
  H   3.07283073055121      4.26486079722155      4.65067923039812
  H   2.62962315738622      4.09026219412485      2.97285423533434
  N   3.20468064685471      2.31255479655892      3.93525000471515
  C   4.95195217613132      4.33105443194835      1.71320925065728
  C   4.61051804638256      5.92028041721158      3.59259597661785
  H   5.57580487822394      4.00892733830813      3.75013369166579
  C   3.82960052145674      1.56734144123676      2.79276801951396
  C   3.77738087142722      1.90597072894977      5.26945781202698
  H   5.74608662156745      5.02570652793442      1.41765512640955
  H   5.25457302561781      3.33592992785892      1.38198758932916
  H   4.04342954421216      4.61447201648887      1.16592492497212
  H   4.47318868610322      6.07379301352602      4.66805660082747
  H   5.51195298709869      6.45840628407750      3.28217993826015
  H   3.75283458412279      6.37586825241493      3.08151316270716
  C   3.51416481539402      0.08365897382879      2.48829473993890
  H   3.54241751209002      2.12584870911266      1.89766295682889
  H   4.91862838767012      1.66669177974600      2.90207269458922
  C   5.28388598797992      2.10766247845730      5.57125257934961
  H   3.19932537414610      2.45483411020946      6.02079405740562
  H   3.53208045795324      0.85302516727397      5.39642169497534
  C   2.27047634088805     -0.06918776508506      1.61471104985476
  C   3.45943144607093     -0.89092514714064      3.66445035522139
  H   4.37796377827715     -0.21533628539571      1.87288257609419
  C   5.54146831701550      3.39840992013517      6.35667505891528
  C   5.79290453550104      0.91701570367424      6.39363123902467
  H   5.85778623246017      2.13267244309451      4.63745022142449
  H   2.10442031599492     -1.12264641267582      1.36172767770696
  H   1.39563701576901      0.30951220333043      2.14374083406182
  H   2.36459582233535      0.49990683189210      0.68408025866620
  H   2.58107128633164     -0.70629171984349      4.29131006249281
  H   3.37481087432373     -1.91348701629515      3.28059289398123
  H   4.35814720228196     -0.84887916609858      4.28723686406260
  H   5.08860539491416      3.32256593831597      7.35295739987838
  H   6.61520704665387      3.56904618934058      6.49217481333733
  H   5.11939236382713      4.28106402170488      5.87217913481343
  H   5.18879711057917      0.79128246958358      7.30065628639463
  H   5.74683619466571     -0.01924340532531      5.82877399483930
  H   6.83128289840447      1.07374029606720      6.70475296221449
