36
Coordinates from ORCA-job orca
  Rh  0.88572612377033      1.87179017469529      4.34244047604500
  O   0.60637613515386      3.94332053259499      4.13882022798370
  O   1.39689947298633      1.74442839975970      2.35666410203763
  H   3.03567920445737      3.85408478074506      7.66248536808996
  C   1.58398545450215      0.20376592356993      4.56714123848514
  C   0.59111031038907      4.56086645009242      3.02701163379850
  C   1.27114014161453      2.69078333706178      1.51415092064266
  H   0.93650767666175      5.16035925126412      6.33136533877446
  O   2.05026278687454     -0.84872081965678      4.69274260299147
  C   0.85510015899951      4.00524303611382      1.76882773149168
  C   0.26892376080164      6.03211858627195      3.12422877150369
  C   1.64165786905299      2.30011993450776      0.10486561877726
  H   0.79687478138618      4.67099760427050      0.91606339883421
  H   -0.69764476588276      6.15615345018484      3.62398904004767
  H   0.23676707786906      6.52032132567682      2.14862126864539
  H   1.02282460288201      6.52650530347023      3.74687388220367
  H   2.69335403735823      1.99567284937918      0.08158502673848
  H   1.48639222995805      3.11380377988745     -0.60564684372981
  H   1.04758854752776      1.43156138730535     -0.19632854571574
  H   0.86695353949603      4.78626440920840      8.06412874687246
  O   -1.68138738826933      0.48562021694493      3.59236503189270
  C   -0.31090610071053      0.89303817032286      6.94246015496119
  H   0.20239297752896     -0.04826890914630      6.73481911238040
  H   -0.48701284278677      0.97834393583981      8.02522274616432
  H   -1.26978462650773      0.89000463303304      6.41941725890903
  N   0.50752453402961      2.03354328403908      6.47010140462047
  C   1.80549760530145      2.11269084177128      7.21220192423500
  C   2.26949983696146      3.53535911427307      6.95057658881429
  C   0.96541646618509      4.35274837248403      7.06382561809484
  C   -0.16549910410131      3.33509937530019      6.81874020996171
  H   1.60599300955986      1.96412889731452      8.28758772290611
  H   2.48960978170529      1.33451234808790      6.86504926800118
  H   2.68132509397415      3.60639766342517      5.93829069414395
  C   -1.19082110860603      1.50607724796828      3.83148482944363
  H   -0.84328447490100      3.61510037137499      6.00979323022409
  H   -0.75250435780555      3.17585354773779      7.73426717726454
