59
Coordinates from ORCA-job orca
  Rh  0.07633672740594      1.89912156027692      3.16592239496820
  O   -0.10340186393491      3.19278930306852      4.74390587028123
  O   0.23223292876410      3.48822984289175      1.88693191270805
  C   -0.05662967256050      0.47163200729821      4.32695720596106
  O   0.36125640606005      0.02504785187734      0.84994254153537
  C   -0.08517223244495      4.47018084564895      4.67482807568330
  C   0.21316643669076      4.72216339378743      2.21590196179632
  O   -0.12578885564174     -0.40338622923302      5.06657110253323
  C   0.24748919651381      0.73519487634760      1.74386435008902
  C   0.06182903812816      5.23093954809371      3.51119372716615
  C   -0.21409331409607      5.16328914752184      6.00419527308631
  C   0.36753756216447      5.67392314059892      1.06025125764246
  H   0.06759896534430      6.30866418130084      3.62227611203992
  H   -1.09733795202140      4.78388855811363      6.52693819727131
  H   -0.28254644818398      6.24790719955028      5.90376923185146
  H   0.65700844133067      4.91273480939878      6.62063128065753
  H   1.26027848419122      5.40424466907767      0.48705464299962
  H   0.43922224833400      6.71364224647043      1.38397029108751
  H   -0.49027292468670      5.56362170362124      0.38768598798851
  C   4.50448279130694      4.38059781201031      3.52082769702777
  H   2.49311232797109      3.66152683906835      3.84846790474756
  H   3.18332601238520      3.19550304847512      2.29878412081488
  C   4.79070686185174      1.24041102206107      3.41304329040140
  C   3.29950289118776      1.73938140892147      5.31577610090078
  C   4.71503083184194     -0.28928159927169      3.53016225160152
  H   4.88152177625197      1.48562239883226      2.34375694839367
  H   5.73756276586117      1.57104269686422      3.88936727848115
  C   4.23897878273087      2.34293700239731      6.39905511337829
  H   2.28217310230076      2.12406736502084      5.48372567604227
  H   3.23556484605476      0.65490853394645      5.47777691554438
  N   3.62210092859171      1.94724941039127      3.91106765589904
  C   3.41058165745004      3.28496793013353      3.37594547660820
  C   3.69562489949834      3.67322256016553      6.92690560384660
  H   2.76656452956578      3.49715265297690      7.48499531459429
  H   4.40442362477914      4.16038888151834      7.60627750117084
  H   3.46682013709747      4.37499884426957      6.11823475928661
  C   4.42292780700887      1.35754029971539      7.55552050548247
  H   3.45262949082925      1.10445724628619      8.00224162305340
  H   4.88497716555641      0.42499200930755      7.21246535677518
  H   5.05337140783192      1.77813969728627      8.34705310409401
  C   5.59833946109881      4.28815194042487      2.45186806674266
  H   6.29822039393287      5.12693772550164      2.54135816581786
  H   6.17825446413887      3.36559822214967      2.52228335459476
  H   5.15594539472711      4.33142104293009      1.44829141400727
  C   3.82769994055986      5.75244377039826      3.43662114437797
  H   3.09711499634767      5.89323060602770      4.24160183431255
  H   4.56028903226105      6.56490870805289      3.49019916072398
  H   3.28714668541133      5.85188409082476      2.48543645812316
  C   5.96165792963746     -0.90012604169994      2.88608445522537
  H   5.96996959957985     -1.98877717393630      3.00247722897879
  H   5.99010777507959     -0.68000594434384      1.81154980956446
  H   6.88045449523265     -0.50564347714576      3.33497775288789
  C   3.44052705156407     -0.83904338031678      2.89483016229916
  H   3.40814781619585     -0.59032312759011      1.82636777023546
  H   3.39046630516398     -1.92921993381843      2.99044101294292
  H   2.55033649135001     -0.40385947189843      3.35783741595547
  H   4.97690063787380      4.28583022979799      4.50731667109493
  H   4.72585200876345     -0.56669653482132      4.59459878481444
  H   5.22299914918881      2.51554436336779      5.94045432460500
